# 2d micelle simulation

dimension	2

neighbor	0.3 bin
neigh_modify	delay 5

atom_style	bond

# Soft potential push-off

read_data	data_2.micelle
Reading data file ...
  orthogonal box = (0 0 -0.1) to (47.809143 47.809143 0.1)
  1 by 1 by 1 MPI processor grid
  reading atoms ...
  2600 atoms
  scanning bonds ...
  1 = max bonds/atom
  orthogonal box = (0 0 -0.1) to (47.809143 47.809143 0.1)
  1 by 1 by 1 MPI processor grid
  reading bonds ...
  1000 bonds
Finding 1-2 1-3 1-4 neighbors ...
  special bond factors lj:    0        0        0       
  special bond factors coul:  0        0        0       
     2 = max # of 1-2 neighbors
     2 = max # of 1-3 neighbors
     3 = max # of 1-4 neighbors
     5 = max # of special neighbors
  special bonds CPU = 0.002 seconds
  read_data CPU = 0.031 seconds
special_bonds	fene
Finding 1-2 1-3 1-4 neighbors ...
  special bond factors lj:    0        1        1       
  special bond factors coul:  0        1        1       
     2 = max # of 1-2 neighbors
     5 = max # of special neighbors
  special bonds CPU = 0.001 seconds

pair_style	soft 1.12246
pair_coeff	* * 0.0 1.12246

bond_style 	harmonic
bond_coeff	1 50.0 0.75

velocity	all create 0.45 2349852

variable	prefactor equal ramp(1.0,20.0)

fix		1 all nve
fix		2 all temp/rescale 100 0.45 0.45 0.02 1.0
fix		3 all adapt 1 pair soft a * * v_prefactor
fix		4 all enforce2d

thermo		50
run		1000
Generated 0 of 21 mixed pair_coeff terms from geometric mixing rule
WARNING: Communication cutoff 1.42246 is shorter than a bond length based estimate of 1.425. This may lead to errors. (../comm.cpp:730)
Neighbor list info ...
  update: every = 1 steps, delay = 5 steps, check = yes
  max neighbors/atom: 2000, page size: 100000
  master list distance cutoff = 1.42246
  ghost atom cutoff = 1.42246
  binsize = 0.71123, bins = 68 68 1
  1 neighbor lists, perpetual/occasional/extra = 1 0 0
  (1) pair soft, perpetual
      attributes: half, newton on
      pair build: half/bin/newton
      stencil: half/bin/2d
      bin: standard
WARNING: Communication cutoff 1.42246 is shorter than a bond length based estimate of 1.425. This may lead to errors. (../comm.cpp:730)
WARNING: Inconsistent image flags (../domain.cpp:1051)
Per MPI rank memory allocation (min/avg/max) = 4.374 | 4.374 | 4.374 Mbytes
   Step          Temp          E_pair         E_mol          TotEng         Press     
         0   0.45           0.77478826     3.2749812e-06  1.2246185      1.3826885    
        50   0.54431042     1.2540926      0.11441715     1.9126109      2.0339241    
       100   0.45           1.3747914      0.11291667     1.937535       2.982111     
       150   0.81586335     1.3923121      0.12208128     2.329943       4.5929732    
       200   0.45           1.5576929      0.14607798     2.1535978      5.1940846    
       250   0.78613376     1.4788772      0.15761805     2.4223266      6.3296742    
       300   0.45           1.5867637      0.19044482     2.2270354      6.8142536    
       350   0.72903327     1.4867233      0.20963127     2.4251074      7.908734     
       400   0.45           1.5626603      0.23191236     2.2443996      8.2455785    
       450   0.68275148     1.4832741      0.23209738     2.3978603      9.1063475    
       500   0.45           1.5554247      0.26900394     2.2742556      9.5355294    
       550   0.66189469     1.4525803      0.28786185     2.4020823      10.430677    
       600   0.45           1.5219165      0.30148522     2.2732286      10.870689    
       650   0.6079293      1.4422565      0.32970742     2.3796594      11.546193    
       700   0.45           1.5095335      0.34337862     2.3027391      11.971958    
       750   0.58789494     1.4413075      0.36604125     2.3950176      12.477671    
       800   0.45           1.49121        0.39108775     2.3321247      12.909983    
       850   0.55489248     1.4444143      0.41542246     2.4145158      13.454223    
       900   0.45           1.5015081      0.42437334     2.3757084      13.973425    
       950   0.51235208     1.4909703      0.44777039     2.4508957      14.461823    
      1000   0.45           1.505039       0.46428866     2.4191546      14.972609    
Loop time of 0.829896 on 1 procs for 1000 steps with 2600 atoms

Performance: 520547.026 tau/day, 1204.970 timesteps/s, 3.133 Matom-step/s
95.3% CPU use with 1 MPI tasks x no OpenMP threads

MPI task timing breakdown:
Section |  min time  |  avg time  |  max time  |%varavg| %total
---------------------------------------------------------------
Pair    | 0.56683    | 0.56683    | 0.56683    |   0.0 | 68.30
Bond    | 0.026386   | 0.026386   | 0.026386   |   0.0 |  3.18
Neigh   | 0.13507    | 0.13507    | 0.13507    |   0.0 | 16.28
Comm    | 0.01221    | 0.01221    | 0.01221    |   0.0 |  1.47
Output  | 0.0026003  | 0.0026003  | 0.0026003  |   0.0 |  0.31
Modify  | 0.071645   | 0.071645   | 0.071645   |   0.0 |  8.63
Other   |            | 0.01516    |            |       |  1.83

Nlocal:           2600 ave        2600 max        2600 min
Histogram: 1 0 0 0 0 0 0 0 0 0
Nghost:            317 ave         317 max         317 min
Histogram: 1 0 0 0 0 0 0 0 0 0
Neighs:           7790 ave        7790 max        7790 min
Histogram: 1 0 0 0 0 0 0 0 0 0

Total # of neighbors = 7790
Ave neighs/atom = 2.9961538
Ave special neighs/atom = 0.76923077
Neighbor list builds = 113
Dangerous builds = 0

unfix		3
unfix 1
# Main run
fix 5 all nvt temp 0.45 0.45 0.01
pair_style	lj/cut 2.5

# solvent/head - full-size and long-range

pair_coeff	1 1 1.0 1.0 2.5
pair_coeff	2 2 1.0 1.0 2.5
pair_coeff	1 2 1.0 1.0 2.5

# tail/tail - size-averaged and long-range

pair_coeff	3 3 1.0 0.75 2.5
pair_coeff	4 4 1.0 0.50 2.5
pair_coeff	3 4 1.0 0.67 2.5
pair_coeff      3 5*7 1.0 0.67 2.5
pair_coeff      4 5*7 1.0 0.67 2.5
pair_coeff      5 5*7 1.0 0.67 2.5
pair_coeff      6 6*7 1.0 0.67 2.5
pair_coeff      7 7   1.0 0.67 2.5

# solvent/tail - full-size and repulsive

pair_coeff	1 3 1.0 1.0 1.12246
pair_coeff	1 4 1.0 1.0 1.12246
pair_coeff      1 5*7 1.0 1.0 1.12246

# head/tail - size-averaged and repulsive

pair_coeff	2 3 1.0 0.88 1.12246
pair_coeff	2 4 1.0 0.75 1.12246
pair_coeff      2 5*7 1.0 0.75 1.12246

thermo		1000

dump		1 all atom 500 dump.micelle

#dump		2 all image 2000 image.*.jpg type type zoom 1.6
#dump_modify	2 pad 5 adiam 1 0.5 adiam 2 1.5 adiam 3 1.0 adiam 4 0.75

#dump		3 all movie 2000 movie.mpg type type zoom 1.6
#dump_modify	3 pad 5 adiam 1 0.5 adiam 2 1.5 adiam 3 1.0 adiam 4 0.75

reset_timestep	0
run		500000
Generated 0 of 21 mixed pair_coeff terms from geometric mixing rule
Neighbor list info ...
  update: every = 1 steps, delay = 5 steps, check = yes
  max neighbors/atom: 2000, page size: 100000
  master list distance cutoff = 2.8
  ghost atom cutoff = 2.8
  binsize = 1.4, bins = 35 35 1
  1 neighbor lists, perpetual/occasional/extra = 1 0 0
  (1) pair lj/cut, perpetual
      attributes: half, newton on
      pair build: half/bin/newton
      stencil: half/bin/2d
      bin: standard
WARNING: Inconsistent image flags (../domain.cpp:1051)
Per MPI rank memory allocation (min/avg/max) = 4.372 | 4.372 | 4.372 Mbytes
   Step          Temp          E_pair         E_mol          TotEng         Press     
         0   0.45          -0.929247       0.46428866    -0.015131408    16.458196    
      1000   0.46395134    -1.8903636      0.20477371    -1.221817       8.254431     
      2000   0.44909806    -1.9290295      0.19481438    -1.2852898      7.5060684    
      3000   0.43670299    -1.9643149      0.18505234    -1.3427275      7.0708913    
      4000   0.45319293    -1.9863574      0.18611507    -1.3472237      6.7381738    
      5000   0.45770099    -1.9867782      0.18588057    -1.3433727      6.6402097    
      6000   0.45300294    -2.0123687      0.17553126    -1.3840087      6.3003485    
      7000   0.4619831     -2.0366947      0.18219875    -1.3926905      6.1026553    
      8000   0.44928205    -2.047333       0.18426806    -1.4139557      5.9930667    
      9000   0.44697633    -2.0361854      0.18170243    -1.4076785      5.993868     
     10000   0.44991253    -2.0510036      0.18422401    -1.4170402      5.8563214    
     11000   0.44978905    -2.0642         0.1801362     -1.4344477      5.7147546    
     12000   0.45197719    -2.0630473      0.1599109     -1.4513331      5.7612944    
     13000   0.45693601    -2.0940613      0.17231063    -1.4649904      5.5144317    
     14000   0.46343152    -2.0873792      0.18643545    -1.4376904      5.5318493    
     15000   0.45636574    -2.0950768      0.16132994    -1.4775567      5.5114816    
     16000   0.4431496     -2.1021177      0.17200958    -1.4871289      5.351214     
     17000   0.43342459    -2.1009573      0.18052446    -1.487175       5.3509547    
     18000   0.43497654    -2.1041518      0.17370969    -1.4956329      5.3889783    
     19000   0.44927968    -2.1018983      0.16496466    -1.4878268      5.2945537    
     20000   0.43911299    -2.0964541      0.18112811    -1.4763819      5.3094691    
     21000   0.46039404    -2.0924753      0.15853558    -1.4737228      5.4259673    
     22000   0.45632895    -2.0976671      0.16722137    -1.4742923      5.3651583    
     23000   0.45461273    -2.0912728      0.15511726    -1.4817176      5.5040882    
     24000   0.44577414    -2.1080043      0.17075961    -1.491642       5.1898373    
     25000   0.44084391    -2.0973603      0.1588384     -1.4978475      5.27444      
     26000   0.43758737    -2.1007286      0.17507815    -1.4882314      5.2328256    
     27000   0.44652734    -2.1206683      0.16719733    -1.5071153      5.1285771    
     28000   0.44914463    -2.11166        0.16241533    -1.5002728      5.1665804    
     29000   0.4524869     -2.1138048      0.1722529     -1.489239       5.1367939    
     30000   0.46431048    -2.1170421      0.16350368    -1.4894065      5.0312397    
     31000   0.4488931     -2.1388422      0.16729433    -1.5228275      4.9391103    
     32000   0.43750393    -2.1445509      0.16308464    -1.5441306      4.9615813    
     33000   0.44309885    -2.104221       0.16211356    -1.499179       5.1232538    
     34000   0.45865162    -2.1269821      0.15776287    -1.510744       5.0470627    
     35000   0.43241509    -2.1205057      0.16679322    -1.5214637      4.9967006    
     36000   0.46888793    -2.1344904      0.17200234    -1.4937805      4.8596448    
     37000   0.45015923    -2.1338308      0.16286013    -1.5209846      4.9596144    
     38000   0.4410806     -2.1347826      0.15525214    -1.5386195      4.9192938    
     39000   0.44636009    -2.1366083      0.1541752     -1.5362447      4.9194204    
     40000   0.44847965    -2.1458536      0.15319089    -1.5443555      4.7655607    
     41000   0.45077267    -2.1301924      0.14894323    -1.5306499      4.9653869    
     42000   0.4360373     -2.128558       0.1544339     -1.5382545      4.9377343    
     43000   0.44434202    -2.146212       0.16160033    -1.5404406      4.8141711    
     44000   0.43994662    -2.141816       0.16038238    -1.5416562      4.8040544    
     45000   0.44802166    -2.1478623      0.1684758     -1.5315371      4.8175441    
     46000   0.45773471    -2.1414752      0.16061048    -1.5233061      4.8043051    
     47000   0.46080228    -2.1319931      0.16317397    -1.5081941      4.9416337    
     48000   0.43323619    -2.1178012      0.15168237    -1.5330492      4.9722907    
     49000   0.45807702    -2.1358153      0.16392997    -1.5139845      4.8943947    
     50000   0.44601913    -2.1393103      0.15238491    -1.5410778      4.8254107    
     51000   0.45407207    -2.1589353      0.15996411    -1.5450738      4.655294     
     52000   0.4457665     -2.1504001      0.15994851    -1.5448566      4.7809439    
     53000   0.4518092     -2.1436908      0.16264912    -1.5294062      4.7426413    
     54000   0.45272245    -2.1599048      0.15546496    -1.5518915      4.6260156    
     55000   0.45060235    -2.1415762      0.15769588    -1.5334513      4.7785292    
     56000   0.46390036    -2.1445578      0.16545002    -1.5153859      4.7396944    
     57000   0.45236779    -2.1615518      0.15129107    -1.558067       4.6426923    
     58000   0.46647398    -2.1586308      0.15503375    -1.5373025      4.7129315    
     59000   0.4466971     -2.150901       0.16090599    -1.5434697      4.6646973    
     60000   0.43694276    -2.1505662      0.15948201    -1.5543095      4.7294049    
     61000   0.44587453    -2.1520905      0.1601477     -1.5462397      4.6927745    
     62000   0.4514632     -2.1408528      0.17239375    -1.5171694      4.8700441    
     63000   0.44939308    -2.1454402      0.1486617     -1.5475583      4.79379      
     64000   0.45172202    -2.1610802      0.15546578    -1.5540662      4.6659991    
     65000   0.44657056    -2.1520287      0.16392523    -1.5417047      4.723356     
     66000   0.44214143    -2.157216       0.16600879    -1.5492358      4.6668128    
     67000   0.46357955    -2.1564978      0.16122301    -1.5318736      4.6552151    
     68000   0.44080715    -2.1584562      0.15684151    -1.560977       4.6221698    
     69000   0.45974532    -2.136025       0.16697988    -1.5094766      4.8918783    
     70000   0.45964309    -2.1547711      0.15858873    -1.5367161      4.6632654    
     71000   0.46397633    -2.1682139      0.16056233    -1.5438536      4.7216117    
     72000   0.44228031    -2.1500394      0.16926299    -1.5386662      4.6522088    
     73000   0.45687725    -2.1598713      0.17044779    -1.532722       4.697069     
     74000   0.44511483    -2.1394556      0.15721428    -1.5372976      4.8268095    
     75000   0.44618222    -2.1616404      0.15732438    -1.5583054      4.6214621    
     76000   0.45386608    -2.1487652      0.164215      -1.5308586      4.7213614    
     77000   0.44787468    -2.1564702      0.15133519    -1.5574326      4.6289893    
     78000   0.445175      -2.1567875      0.15302209    -1.5587617      4.6452193    
     79000   0.46052384    -2.1703183      0.16062512    -1.5493464      4.6147679    
     80000   0.4424026     -2.1424541      0.15955986    -1.5406618      4.7783094    
     81000   0.44755194    -2.1462681      0.15605003    -1.5428383      4.7884422    
     82000   0.44726302    -2.1513098      0.1646295     -1.5395893      4.7047878    
     83000   0.43564812    -2.1644402      0.14990238    -1.5790573      4.6667387    
     84000   0.44105772    -2.1506534      0.15813387    -1.5516315      4.7101246    
     85000   0.46004695    -2.1501685      0.16709793    -1.5232006      4.7629521    
     86000   0.45128125    -2.1619963      0.15336676    -1.5575218      4.6017111    
     87000   0.43633216    -2.1518192      0.15982729    -1.5558275      4.7212325    
     88000   0.45676244    -2.1658546      0.16172723    -1.5475406      4.6359283    
     89000   0.44100643    -2.1670061      0.15681888    -1.5693504      4.5098051    
     90000   0.4327393     -2.1491964      0.15955593    -1.5570676      4.5928116    
     91000   0.44375707    -2.1539891      0.15620306    -1.5541996      4.6934343    
     92000   0.44189306    -2.1595125      0.15603532    -1.5617541      4.6098478    
     93000   0.44258385    -2.1331539      0.15118662    -1.5395537      4.7095204    
     94000   0.44369505    -2.1624487      0.15974227    -1.559182       4.5459985    
     95000   0.45532431    -2.149251       0.16586474    -1.528237       4.7334952    
     96000   0.436707      -2.1613683      0.1610342     -1.563795       4.6557171    
     97000   0.44459691    -2.1642058      0.16545566    -1.5543242      4.6320882    
     98000   0.4615972     -2.1648341      0.16473441    -1.53868        4.64015      
     99000   0.4460066     -2.1662201      0.14904491    -1.5713402      4.5606141    
    100000   0.45308657    -2.1627673      0.16571087    -1.5441441      4.5212314    
    101000   0.45073346    -2.1375883      0.16146541    -1.5255628      4.7488424    
    102000   0.44440371    -2.1763042      0.14848901    -1.5835824      4.4142805    
    103000   0.46163032    -2.151677       0.1582298     -1.5319944      4.7132822    
    104000   0.4480353     -2.1568173      0.15360551    -1.5553488      4.6812483    
    105000   0.44766012    -2.1502462      0.15348162    -1.5492766      4.6205121    
    106000   0.45046827    -2.158712       0.14793754    -1.5604794      4.6989655    
    107000   0.44046723    -2.1604321      0.15656277    -1.5635715      4.5420776    
    108000   0.44701839    -2.1625653      0.16633287    -1.549386       4.5979962    
    109000   0.45228725    -2.1569526      0.15815124    -1.5466881      4.5756867    
    110000   0.45729       -2.1591186      0.16613529    -1.5358692      4.5417378    
    111000   0.44217513    -2.1773584      0.162859      -1.5724943      4.3717138    
    112000   0.45434127    -2.1921383      0.16676509    -1.5712066      4.2885287    
    113000   0.45065158    -2.1677921      0.15214979    -1.5651641      4.482909     
    114000   0.44660286    -2.1848988      0.15954204    -1.5789257      4.4393026    
    115000   0.4488595     -2.1638866      0.15736541    -1.5578343      4.5566322    
    116000   0.43515952    -2.1722255      0.15860847    -1.5786249      4.387777     
    117000   0.44672918    -2.1742844      0.1576306     -1.5700964      4.4578376    
    118000   0.43550144    -2.1783776      0.15937922    -1.5836644      4.4842115    
    119000   0.44155309    -2.1726591      0.15860668    -1.5726692      4.4401815    
    120000   0.45795797    -2.1822315      0.14664869    -1.577801       4.3782681    
    121000   0.44916862    -2.1714402      0.15731622    -1.5651282      4.4354065    
    122000   0.44707532    -2.1719071      0.15046161    -1.5745421      4.4565427    
    123000   0.43990876    -2.1700286      0.15509192    -1.5751971      4.4176511    
    124000   0.44308754    -2.170184       0.15742788    -1.569839       4.4616814    
    125000   0.46404932    -2.1718336      0.15381179    -1.5541509      4.4644767    
    126000   0.45494776    -2.1639371      0.1504405     -1.5587238      4.55121      
    127000   0.45466743    -2.1833581      0.1509887     -1.5778768      4.3735993    
    128000   0.46371736    -2.1909735      0.15329964    -1.5741348      4.2414581    
    129000   0.45203441    -2.1871834      0.14849819    -1.5868246      4.3567835    
    130000   0.46420333    -2.1764306      0.15704403    -1.5553618      4.4069564    
    131000   0.44142827    -2.1532874      0.15623915    -1.5557898      4.4958157    
    132000   0.4542213     -2.1825038      0.15866599    -1.5697912      4.3762207    
    133000   0.46502848    -2.1964084      0.15353412    -1.5780247      4.3258078    
    134000   0.44304828    -2.1910993      0.15980333    -1.5884181      4.3400671    
    135000   0.43334026    -2.1844586      0.14849921    -1.6027858      4.3582186    
    136000   0.44489935    -2.1772146      0.15045635    -1.58203        4.4771983    
    137000   0.44539826    -2.1598997      0.1562765     -1.5583962      4.5529174    
    138000   0.44372462    -2.172254       0.15285072    -1.5758493      4.4294902    
    139000   0.43567185    -2.1902856      0.16278433    -1.591997       4.2666209    
    140000   0.46064158    -2.1884987      0.14829917    -1.5797351      4.3739714    
    141000   0.43613595    -2.1692379      0.15468661    -1.5785831      4.5488287    
    142000   0.44844507    -2.1704751      0.16112979    -1.5610727      4.4042716    
    143000   0.46655236    -2.1717761      0.16227036    -1.5431328      4.5092924    
    144000   0.45621372    -2.1776546      0.16041587    -1.5612005      4.3483467    
    145000   0.44750936    -2.1952016      0.15479036    -1.593074       4.2324219    
    146000   0.44879031    -2.1959422      0.15878393    -1.5885405      4.3087983    
    147000   0.44044196    -2.1841249      0.1540093     -1.5898431      4.3708461    
    148000   0.45139903    -2.1830384      0.15854358    -1.5732694      4.2328831    
    149000   0.45631783    -2.1760041      0.15756779    -1.562294       4.3865786    
    150000   0.46801151    -2.1791731      0.15289362    -1.5584479      4.4664962    
    151000   0.45094431    -2.1824416      0.15565513    -1.5760156      4.2787357    
    152000   0.45474617    -2.1963166      0.16048543    -1.5812599      4.2423897    
    153000   0.45087037    -2.1996054      0.1566318     -1.5922766      4.2126349    
    154000   0.45557861    -2.1955236      0.15789868    -1.5822216      4.2538646    
    155000   0.45418581    -2.1800837      0.15986675    -1.5662059      4.4244118    
    156000   0.44795293    -2.1925367      0.15758645    -1.5871696      4.2515287    
    157000   0.44577032    -2.1936529      0.15711191    -1.5909421      4.3010448    
    158000   0.4439523     -2.1903855      0.16457492    -1.5820291      4.2415914    
    159000   0.45123779    -2.1843377      0.15279316    -1.5804803      4.3204586    
    160000   0.44108927    -2.1889081      0.15153332    -1.5964551      4.2707907    
    161000   0.45967257    -2.1900388      0.15360316    -1.5769399      4.1851338    
    162000   0.44349754    -2.1765139      0.15056741    -1.5826195      4.3691588    
    163000   0.44842305    -2.1869367      0.15782859    -1.5808575      4.2734305    
    164000   0.45011124    -2.1852792      0.14666082    -1.5886802      4.3330517    
    165000   0.44190762    -2.1770579      0.14113985    -1.5941804      4.3198373    
    166000   0.45          -2.1708468      0.15111315    -1.5699068      4.4365097    
    167000   0.45          -2.1894205      0.15582594    -1.5837676      4.3009444    
    168000   0.46803744    -2.1742028      0.14798952    -1.5583559      4.3753469    
    169000   0.44474266    -2.1837511      0.15515095    -1.5840285      4.1551046    
    170000   0.45450195    -2.1919118      0.16087217    -1.5767125      4.2127222    
    171000   0.45380873    -2.1875837      0.15918528    -1.5747642      4.2440697    
    172000   0.45100623    -2.1838116      0.1463417     -1.5866371      4.2340358    
    173000   0.45091902    -2.176138       0.15228668    -1.5731057      4.3349339    
    174000   0.44294276    -2.1888615      0.15681465    -1.5892744      4.2751229    
    175000   0.43596784    -2.1982121      0.15047309    -1.6119388      4.2246978    
    176000   0.45140712    -2.1942734      0.1452351     -1.5978048      4.2560134    
    177000   0.4506115     -2.1830251      0.16073675    -1.5718502      4.2298054    
    178000   0.45237943    -2.1770507      0.15452843    -1.5703168      4.3199813    
    179000   0.44029001    -2.194145       0.15937997    -1.5946444      4.2414636    
    180000   0.45233764    -2.1848768      0.14377115    -1.588942       4.2767137    
    181000   0.43821618    -2.2031693      0.15096113    -1.6141605      4.132744     
    182000   0.45907124    -2.1843194      0.14460982    -1.5808149      4.3365797    
    183000   0.44236391    -2.1881671      0.15094327    -1.5950301      4.1810409    
    184000   0.45648789    -2.1857133      0.15598738    -1.5734136      4.2807541    
    185000   0.4582984     -2.2008311      0.16069681    -1.5820122      4.172837     
    186000   0.44108612    -2.1783723      0.15775374    -1.5797021      4.3146813    
    187000   0.4521225     -2.1761313      0.13916285    -1.5850199      4.3173083    
    188000   0.45291067    -2.1946775      0.15757244    -1.5843685      4.1894766    
    189000   0.45170575    -2.2062348      0.15473598    -1.5999668      4.1484552    
    190000   0.44639438    -2.1953877      0.1619414     -1.5872236      4.2589839    
    191000   0.46109417    -2.1877167      0.15032443    -1.5764754      4.2547125    
    192000   0.44621631    -2.1937288      0.15434806    -1.5933361      4.1953677    
    193000   0.44842174    -2.1868999      0.15672499    -1.5819256      4.212613     
    194000   0.46285689    -2.1960159      0.16546613    -1.5678709      4.1580474    
    195000   0.46665657    -2.1823097      0.15578849    -1.5600441      4.325578     
    196000   0.45          -2.1792062      0.15276788    -1.5766114      4.337963     
    197000   0.45898352    -2.1734147      0.15663536    -1.5579724      4.4518665    
    198000   0.44174311    -2.1961366      0.14439673    -1.6101666      4.2588039    
    199000   0.45024012    -2.1944966      0.15233924    -1.5920904      4.2632237    
    200000   0.45872496    -2.190281       0.15726673    -1.5744657      4.2263082    
    201000   0.44063771    -2.1986233      0.15225854    -1.6058966      4.212224     
    202000   0.43769389    -2.1916679      0.15732154    -1.5968208      4.2462866    
    203000   0.46004815    -2.1750405      0.15683158    -1.5583377      4.4087968    
    204000   0.44827433    -2.1906705      0.1534696     -1.589099       4.2862298    
    205000   0.43810144    -2.2096092      0.15680588    -1.6148704      4.080546     
    206000   0.44028051    -2.1913266      0.15933488    -1.5918806      4.203549     
    207000   0.44835987    -2.2111174      0.1530921     -1.6098379      4.130698     
    208000   0.44397345    -2.2004322      0.15821396    -1.5984155      4.1330579    
    209000   0.4516708     -2.2007182      0.15717264    -1.5920485      4.1298337    
    210000   0.45048058    -2.2035824      0.1532041     -1.600071       4.1024778    
    211000   0.45781968    -2.1985056      0.15387964    -1.5869824      4.1989264    
    212000   0.43480376    -2.2052504      0.14515156    -1.6254623      3.993557     
    213000   0.46144868    -2.2155117      0.15166197    -1.6025785      4.0876912    
    214000   0.43486985    -2.1975072      0.15502309    -1.6077815      4.1420382    
    215000   0.44412216    -2.2096279      0.16150766    -1.6041689      4.0086039    
    216000   0.44729898    -2.1934668      0.14951487    -1.5968249      4.1703366    
    217000   0.46892362    -2.2052776      0.16499853    -1.5715358      4.0837755    
    218000   0.44685202    -2.1990407      0.15423758    -1.5981229      4.1303867    
    219000   0.4590477     -2.2092485      0.14635504    -1.6040223      3.9999176    
    220000   0.44812835    -2.2110048      0.15579659    -1.6072522      4.0775172    
    221000   0.44383041    -2.2085163      0.15696227    -1.6078943      4.0109793    
    222000   0.44583838    -2.2136124      0.15266341    -1.6152821      4.0125968    
    223000   0.45125993    -2.2065258      0.1575308     -1.5979087      4.0910898    
    224000   0.44468123    -2.2085138      0.14965942    -1.6143442      4.0509156    
    225000   0.4479535     -2.2022591      0.15849098    -1.5959869      4.0671934    
    226000   0.44752478    -2.2042491      0.15505803    -1.6018384      4.1264311    
    227000   0.45762153    -2.2023981      0.16042767    -1.584525       4.0352239    
    228000   0.44032811    -2.2052931      0.15546737    -1.6096669      4.0972037    
    229000   0.44516641    -2.2005472      0.14956843    -1.6059835      4.1937994    
    230000   0.46156584    -2.2144888      0.15873814    -1.5943623      4.0404905    
    231000   0.44207721    -2.2271321      0.16331145    -1.6219135      3.9316812    
    232000   0.45640659    -2.2264032      0.15185291    -1.6183192      3.9092768    
    233000   0.44870844    -2.2236465      0.1504683     -1.6246423      3.9370417    
    234000   0.45198223    -2.2174525      0.15562768    -1.6100164      3.9693073    
    235000   0.46138731    -2.2135679      0.15304011    -1.5993179      3.9725185    
    236000   0.45309433    -2.2021253      0.15505911    -1.5941461      4.1051684    
    237000   0.44620165    -2.2260988      0.15265755    -1.6274112      3.8635749    
    238000   0.43355381    -2.2146111      0.14730941    -1.6339146      4.0020852    
    239000   0.43593974    -2.2285467      0.15359077    -1.6391839      3.8479155    
    240000   0.45579864    -2.234494       0.15192006    -1.6269506      3.8373522    
    241000   0.46663286    -2.218151       0.15278632    -1.5989113      4.0277892    
    242000   0.43879241    -2.2112447      0.15900982    -1.6136113      3.9642328    
    243000   0.46233894    -2.2067947      0.1565062     -1.5881274      4.0086637    
    244000   0.44749587    -2.1945103      0.14834543    -1.5988412      4.1300288    
    245000   0.44642009    -2.209975       0.15069919    -1.6130274      4.0600144    
    246000   0.4425503     -2.1975073      0.14511788    -1.6100093      4.1057583    
    247000   0.44584768    -2.2097453      0.14820382    -1.6158652      3.9975261    
    248000   0.44956765    -2.2173185      0.14650037    -1.6214234      3.9672577    
    249000   0.45          -2.2122165      0.14141275    -1.6209768      3.9766974    
    250000   0.44337185    -2.212543       0.15577937    -1.6135623      4.066574     
    251000   0.44363814    -2.2200814      0.14310954    -1.6335043      3.9110727    
    252000   0.455519      -2.2083976      0.15347815    -1.5995757      4.0196235    
    253000   0.46163543    -2.1926551      0.14501666    -1.5861805      4.1854235    
    254000   0.4535477     -2.1998788      0.15201557    -1.5944899      4.0949249    
    255000   0.45565128    -2.2021193      0.15362249    -1.5930208      4.1626204    
    256000   0.43845318    -2.2012174      0.15137396    -1.6115589      4.10547      
    257000   0.44177082    -2.2076324      0.14420467    -1.6218268      4.1048256    
    258000   0.4495944     -2.2050188      0.14494168    -1.6106556      4.1051392    
    259000   0.45685304    -2.2199864      0.15380473    -1.6095043      3.903577     
    260000   0.45984964    -2.22006        0.14605746    -1.6143297      3.9803684    
    261000   0.44764141    -2.2193717      0.15354784    -1.6183547      4.0056263    
    262000   0.45759373    -2.2106128      0.1463327     -1.6068624      3.9360297    
    263000   0.46002122    -2.2127721      0.16534614    -1.5875816      4.0653163    
    264000   0.46364833    -2.2153581      0.1556529     -1.5962352      4.0566933    
    265000   0.46143516    -2.2067168      0.15146063    -1.5939985      4.0623091    
    266000   0.46279701    -2.2113583      0.1535985     -1.5951408      4.0510638    
    267000   0.4523718     -2.2005248      0.15286914    -1.5954578      4.0395875    
    268000   0.44532739    -2.2119597      0.15190445    -1.6148991      3.9450125    
    269000   0.46562809    -2.2066221      0.14621363    -1.5949595      4.1101089    
    270000   0.4433782     -2.2161273      0.15622117    -1.6166985      3.9684324    
    271000   0.44363946    -2.2153926      0.14412117    -1.6278026      3.9504138    
    272000   0.44851684    -2.2145389      0.14508873    -1.6211058      3.9770503    
    273000   0.44169753    -2.2101718      0.15076921    -1.6178749      4.0621571    
    274000   0.43165023    -2.2082991      0.15714525    -1.6196696      3.9280562    
    275000   0.44067861    -2.2074945      0.14835875    -1.6186266      3.9960257    
    276000   0.45302361    -2.2136744      0.15421113    -1.6066139      3.9989366    
    277000   0.46989805    -2.232592       0.14783265    -1.615042       3.8123588    
    278000   0.44296415    -2.2151732      0.15845831    -1.6139211      3.9797671    
    279000   0.43726758    -2.2253085      0.1498015     -1.6384076      3.8114637    
    280000   0.45001331    -2.213188       0.14735389    -1.6159939      4.0848419    
    281000   0.45524409    -2.219487       0.14337978    -1.6210382      3.8858938    
    282000   0.44845978    -2.207862       0.14485202    -1.6147227      4.0134453    
    283000   0.44681687    -2.2207957      0.15340571    -1.620745       3.9827624    
    284000   0.46095904    -2.230608       0.1424518     -1.6273744      3.8709575    
    285000   0.44830154    -2.2071563      0.14562404    -1.6134031      4.0803874    
    286000   0.44967635    -2.2000314      0.14822003    -1.6023079      4.081371     
    287000   0.44441428    -2.1985704      0.15920511    -1.5951219      4.0857195    
    288000   0.43551998    -2.1989512      0.15435608    -1.6092427      4.0504955    
    289000   0.44229091    -2.2028258      0.1538688     -1.6068362      4.0523602    
    290000   0.45127403    -2.2070429      0.15004524    -1.6058972      3.984826     
    291000   0.44695276    -2.2159064      0.15360812    -1.6155174      4.0235831    
    292000   0.45          -2.2066904      0.16264131    -1.5942222      4.0649789    
    293000   0.45513136    -2.2188364      0.1573976     -1.6064825      4.0408327    
    294000   0.45651002    -2.2125321      0.14838072    -1.6078169      4.0804125    
    295000   0.44875054    -2.2232741      0.15434351    -1.6203527      3.8891878    
    296000   0.44507745    -2.2197472      0.15364945    -1.6211915      3.9907567    
    297000   0.46483168    -2.2286772      0.14774125    -1.6162831      3.8557793    
    298000   0.45618698    -2.213425       0.14991125    -1.6075022      4.0331012    
    299000   0.44885316    -2.2159966      0.15289897    -1.6144171      3.9119891    
    300000   0.45783329    -2.2196483      0.14969122    -1.6122999      3.9643696    
    301000   0.46817699    -2.2192139      0.14804451    -1.6031724      3.9747147    
    302000   0.44543445    -2.2187453      0.15230007    -1.6211821      3.9760145    
    303000   0.4578169     -2.1957133      0.14267171    -1.5954008      4.0943798    
    304000   0.452755      -2.2124117      0.14809116    -1.6117397      4.0321132    
    305000   0.46419485    -2.2079816      0.14474449    -1.5992208      4.0359535    
    306000   0.46050309    -2.1996784      0.15079959    -1.5885529      4.1019023    
    307000   0.4664419     -2.2089945      0.15205593    -1.5906761      4.0612103    
    308000   0.43637297    -2.205753       0.15201971    -1.6175282      3.9806737    
    309000   0.45569111    -2.1979345      0.15420521    -1.5882134      4.0788378    
    310000   0.44168945    -2.212678       0.14751498    -1.6236435      3.9345036    
    311000   0.4599586     -2.2064575      0.15110846    -1.5955674      4.0187557    
    312000   0.44236815    -2.2031627      0.15172269    -1.609242       4.0361024    
    313000   0.45911052    -2.2121904      0.15087963    -1.6023768      4.0399405    
    314000   0.45          -2.2056086      0.154728      -1.6010536      4.0841288    
    315000   0.44356058    -2.1943596      0.1483777     -1.6025919      4.1717026    
    316000   0.44946486    -2.2260651      0.15583481    -1.6209383      3.8578231    
    317000   0.4472573     -2.2210624      0.15549103    -1.6184861      3.8757919    
    318000   0.43877403    -2.2214355      0.15573987    -1.6270903      3.9697222    
    319000   0.44999034    -2.2212637      0.15017705    -1.6212694      3.9494976    
    320000   0.449036      -2.2104119      0.151643      -1.6099056      4.0685315    
    321000   0.46011595    -2.2111503      0.1513616     -1.5998497      4.0371197    
    322000   0.46038207    -2.227894       0.14714428    -1.6205447      3.920065     
    323000   0.45786071    -2.2153468      0.15180507    -1.6058571      4.0755003    
    324000   0.45125748    -2.2104275      0.158298      -1.6010456      4.0752358    
    325000   0.43957084    -2.2241321      0.15026367    -1.6344667      3.8516013    
    326000   0.4498471     -2.2188584      0.15151208    -1.6176723      4.0179559    
    327000   0.45880886    -2.2040201      0.15415661    -1.5912311      4.1125807    
    328000   0.4545354     -2.2157629      0.14942206    -1.6119803      3.9204541    
    329000   0.44462501    -2.2234495      0.14809487    -1.6309007      3.8297161    
    330000   0.43696524    -2.2116343      0.14975168    -1.6250854      4.0008846    
    331000   0.4539335     -2.1997938      0.15023107    -1.5958038      4.1118673    
    332000   0.44285743    -2.217317       0.15009397    -1.6245359      4.0629274    
    333000   0.45862417    -2.2178071      0.14062672    -1.6187326      4.0099427    
    334000   0.4536543     -2.1932025      0.14640105    -1.5933217      4.2034495    
    335000   0.44421748    -2.2174988      0.15391742    -1.6195347      4.0301086    
    336000   0.43023999    -2.2113186      0.14645796    -1.6347861      3.9861491    
    337000   0.46058116    -2.2065677      0.14770763    -1.598456       4.1188209    
    338000   0.43259061    -2.2229878      0.15293369    -1.6376298      4.0149324    
    339000   0.44951454    -2.2071974      0.15181075    -1.606045       3.9989853    
    340000   0.4548681     -2.2150536      0.15345251    -1.6069079      4.0006889    
    341000   0.45600684    -2.2046351      0.15128831    -1.5975154      4.0487751    
    342000   0.45063484    -2.2174076      0.14497279    -1.6219733      3.9903763    
    343000   0.44499392    -2.223836       0.16524451    -1.6137687      3.9457815    
    344000   0.45364435    -2.2138413      0.15858888    -1.6017825      4.042737     
    345000   0.45400013    -2.2092761      0.15244722    -1.6030034      4.0483053    
    346000   0.44049189    -2.2119357      0.14351568    -1.6280976      4.0618801    
    347000   0.45957197    -2.2218874      0.15385958    -1.6086326      3.9084447    
    348000   0.44546187    -2.2031437      0.15883634    -1.5990169      4.1447398    
    349000   0.45589122    -2.2216435      0.1365228     -1.6294048      4.0232765    
    350000   0.46410191    -2.2132726      0.1487969     -1.6005523      3.9557108    
    351000   0.4514193     -2.198972       0.15892211    -1.5888042      4.1013938    
    352000   0.44027671    -2.2141438      0.15734678    -1.6166896      3.9897842    
    353000   0.44268287    -2.2176134      0.1581103     -1.6169905      3.8970889    
    354000   0.44806092    -2.214819       0.14782959    -1.6191008      4.0839533    
    355000   0.43883139    -2.2214082      0.14946217    -1.6332834      3.9249591    
    356000   0.44218519    -2.2139336      0.15015962    -1.6217589      4.0311531    
    357000   0.45149556    -2.2177115      0.1427262     -1.6236634      3.9950432    
    358000   0.45          -2.2295122      0.14990356    -1.6297818      3.8294369    
    359000   0.45          -2.224243       0.15322663    -1.6211895      3.8508289    
    360000   0.4405415     -2.213172       0.15608628    -1.6167137      4.007543     
    361000   0.45016208    -2.2106919      0.14627339    -1.6144296      4.0825564    
    362000   0.46989199    -2.2091537      0.15785685    -1.5815856      4.1141102    
    363000   0.46018044    -2.1930606      0.15344445    -1.5796127      4.1808409    
    364000   0.44023865    -2.2093471      0.16391435    -1.6053634      4.0088831    
    365000   0.46013401    -2.1997113      0.15010178    -1.5896525      4.1955906    
    366000   0.44664919    -2.2084514      0.15612009    -1.6058539      4.15438      
    367000   0.45759911    -2.201886       0.15318235    -1.5912806      4.1750203    
    368000   0.44902059    -2.2181312      0.15023914    -1.6190442      3.9680489    
    369000   0.45998543    -2.2264872      0.14999415    -1.6166845      3.844379     
    370000   0.44673572    -2.2331422      0.15067043    -1.6359079      3.9623436    
    371000   0.45114769    -2.2250018      0.14880465    -1.625223       3.9305506    
    372000   0.45252162    -2.2076151      0.14864734    -1.6066202      4.0702045    
    373000   0.4557262     -2.2243559      0.15114674    -1.6176583      3.8405812    
    374000   0.43397439    -2.2066822      0.15752482    -1.6153499      3.9993174    
    375000   0.44995811    -2.2112095      0.15177429    -1.6096502      4.0540716    
    376000   0.44507479    -2.2261733      0.14539088    -1.6358788      3.9554931    
    377000   0.4592112     -2.213543       0.15315257    -1.6013558      4.0183558    
    378000   0.45183523    -2.2186235      0.15130099    -1.615661       3.8846889    
    379000   0.46405455    -2.2255849      0.14946224    -1.6122466      3.9211878    
    380000   0.44823763    -2.2227807      0.15338025    -1.6213352      3.9378854    
    381000   0.46857014    -2.2314611      0.15538606    -1.6076852      3.8062043    
    382000   0.44486548    -2.2316123      0.15866144    -1.6282565      3.8809201    
    383000   0.43515111    -2.2191116      0.16083951    -1.6232883      3.9152388    
    384000   0.43998203    -2.2214321      0.15622539    -1.625394       3.9654583    
    385000   0.45037831    -2.2010432      0.14919226    -1.6016459      4.0666757    
    386000   0.46207809    -2.226858       0.15083188    -1.6141258      3.9851758    
    387000   0.44100922    -2.2262023      0.16054895    -1.6248137      3.8793298    
    388000   0.45152923    -2.2338469      0.15196968    -1.6305217      3.8218733    
    389000   0.45575922    -2.2205477      0.15116655    -1.6137972      3.9788648    
    390000   0.43826116    -2.2208817      0.15212444    -1.6306647      3.9727625    
    391000   0.45239195    -2.2176137      0.16220259    -1.6031932      3.9566804    
    392000   0.44186446    -2.2205659      0.15356451    -1.6253069      3.9811662    
    393000   0.46665678    -2.222467       0.14513011    -1.6108596      4.0458626    
    394000   0.45176034    -2.1937685      0.13837857    -1.6038034      4.1964393    
    395000   0.45763219    -2.2194668      0.15932983    -1.6026808      3.9639715    
    396000   0.4371505     -2.208931       0.1551922     -1.6167565      4.0359182    
    397000   0.43529155    -2.2232235      0.15275942    -1.63534        3.9523031    
    398000   0.45030205    -2.2236257      0.14322539    -1.6302715      3.9059641    
    399000   0.45681153    -2.2126817      0.14805652    -1.6079894      4.0570735    
    400000   0.43767933    -2.209837       0.1519471     -1.6203789      4.1065234    
    401000   0.45799144    -2.2296358      0.14820076    -1.6236198      3.9076095    
    402000   0.45842924    -2.231285       0.15556752    -1.6174646      3.8983714    
    403000   0.45552528    -2.2216598      0.15758395    -1.6087258      3.9292696    
    404000   0.44956614    -2.2194357      0.13887016    -1.6311723      3.9768746    
    405000   0.45374837    -2.2075547      0.15306663    -1.6009143      4.0244503    
    406000   0.44359225    -2.2137344      0.15366053    -1.6166523      4.0280224    
    407000   0.44452186    -2.1976081      0.14953665    -1.6037205      4.1115979    
    408000   0.4333323     -2.2187829      0.14979491    -1.6358223      3.9628644    
    409000   0.44673628    -2.2224719      0.15028157    -1.6256259      4.0133997    
    410000   0.4518393     -2.2243197      0.14944291    -1.6232113      3.9805892    
    411000   0.45899851    -2.2205989      0.14733657    -1.6144403      3.9854804    
    412000   0.45371015    -2.2132642      0.15194428    -1.6077842      3.9711136    
    413000   0.44741282    -2.2086786      0.14566917    -1.6157687      4.0553221    
    414000   0.4545658     -2.2214974      0.16254103    -1.6045654      3.8623245    
    415000   0.44296463    -2.2167164      0.1518934     -1.6220288      3.9365449    
    416000   0.44497381    -2.2085263      0.15190865    -1.6118149      4.0379514    
    417000   0.44212959    -2.204071       0.15267041    -1.6094411      4.1002351    
    418000   0.4647289     -2.2230699      0.14002103    -1.6184987      3.9290969    
    419000   0.45863098    -2.2145568      0.14747075    -1.6086315      4.0442396    
    420000   0.44985803    -2.2197952      0.14418257    -1.6259276      4.0071975    
    421000   0.43242669    -2.210649       0.15396291    -1.6244257      4.0007868    
    422000   0.43452287    -2.2256724      0.15055969    -1.640757       3.9511957    
    423000   0.45437769    -2.2172292      0.15465027    -1.608376       3.9184403    
    424000   0.44625713    -2.2290428      0.14158152    -1.6413757      3.8295326    
    425000   0.43435351    -2.1977118      0.14579065    -1.6177347      4.1321768    
    426000   0.44316613    -2.2124145      0.15110422    -1.6183146      3.9375569    
    427000   0.45215431    -2.2207497      0.1558618     -1.6129075      3.8992242    
    428000   0.44140771    -2.2084711      0.1460614     -1.6211717      4.0122196    
    429000   0.44451167    -2.2212664      0.14923137    -1.6276943      3.9819682    
    430000   0.45940915    -2.2076645      0.15286652    -1.5955655      4.0599166    
    431000   0.44865807    -2.21453        0.14995139    -1.6160931      3.9843029    
    432000   0.44111979    -2.2082436      0.15097806    -1.6163154      4.0752163    
    433000   0.44363116    -2.2108068      0.15873426    -1.608612       4.0541313    
    434000   0.44849602    -2.2057542      0.14870195    -1.6087287      4.1016532    
    435000   0.46675147    -2.2081012      0.14972582    -1.5918034      4.1145667    
    436000   0.4481858     -2.2218526      0.16006052    -1.6137787      3.8614002    
    437000   0.45728595    -2.2036097      0.15770667    -1.5887929      4.0951664    
    438000   0.45195703    -2.2229183      0.15465043    -1.6164847      3.9177563    
    439000   0.45281854    -2.2249755      0.1528682     -1.6194629      3.8461697    
    440000   0.4469072     -2.2185985      0.14887253    -1.6229906      3.9431613    
    441000   0.4414187     -2.2190884      0.14441505    -1.6334244      3.9312173    
    442000   0.45370598    -2.2064833      0.15447807    -1.5984738      3.9647531    
    443000   0.44158809    -2.2101316      0.1474686     -1.6212448      3.9853437    
    444000   0.44944122    -2.2098307      0.1525959     -1.6079664      4.0435127    
    445000   0.45575862    -2.2187614      0.15186781    -1.6113103      3.827199     
    446000   0.44289907    -2.2143705      0.14890632    -1.6227354      3.9925765    
    447000   0.44339319    -2.2266023      0.14991518    -1.6334645      3.8877213    
    448000   0.46210998    -2.2259448      0.15988148    -1.6041311      3.9601702    
    449000   0.44138939    -2.2131509      0.15643735    -1.615494       4.0280035    
    450000   0.45          -2.2104036      0.14963616    -1.6109405      3.9566507    
    451000   0.4454091     -2.2229862      0.1535261     -1.6242223      3.9237481    
    452000   0.45647347    -2.2134908      0.14789818    -1.6092947      4.0237618    
    453000   0.45461229    -2.205261       0.15348861    -1.597335       4.0815982    
    454000   0.44569816    -2.2203449      0.15038439    -1.6244338      3.9783902    
    455000   0.44338701    -2.2127023      0.15313923    -1.6163466      3.9521611    
    456000   0.44489324    -2.2260385      0.14356511    -1.6377512      3.8710377    
    457000   0.44671777    -2.2250815      0.14906875    -1.6294668      3.9220529    
    458000   0.44848714    -2.2097665      0.15042306    -1.6110288      4.1015374    
    459000   0.44750609    -2.2234214      0.15005626    -1.6260311      3.9053875    
    460000   0.44107895    -2.2221027      0.15363664    -1.6275568      3.907798     
    461000   0.44984643    -2.2163811      0.14925879    -1.6174489      4.0482588    
    462000   0.44038465    -2.2200214      0.1582753     -1.6215308      3.8925198    
    463000   0.44798468    -2.2114528      0.14873274    -1.6149077      4.0713184    
    464000   0.45840718    -2.214961       0.1538829     -1.6028472      4.0290225    
    465000   0.45551338    -2.2269679      0.15297658    -1.6186531      3.8498502    
    466000   0.45131138    -2.2291226      0.15362507    -1.6243597      3.900273     
    467000   0.4408267     -2.2152616      0.15204025    -1.6225642      3.9915768    
    468000   0.43981347    -2.2228626      0.15036175    -1.6328565      3.8920031    
    469000   0.46285467    -2.2264594      0.1470506     -1.6167322      3.8057755    
    470000   0.45755808    -2.2174057      0.1520567     -1.6079669      4.0466762    
    471000   0.45354755    -2.2192834      0.145658      -1.6202523      3.9834246    
    472000   0.43102389    -2.2292458      0.14645875    -1.651929       3.8485461    
    473000   0.44487597    -2.2052664      0.15002873    -1.6105328      4.0265251    
    474000   0.43865941    -2.2236607      0.14939451    -1.6357755      3.9453752    
    475000   0.44505749    -2.2088818      0.15210821    -1.6118873      4.0135374    
    476000   0.44858619    -2.2140807      0.14411906    -1.621548       4.0350954    
    477000   0.45247996    -2.227903       0.15722212    -1.6183749      3.8283305    
    478000   0.44697249    -2.2218897      0.15905519    -1.6160339      3.8271963    
    479000   0.4428116     -2.2227669      0.15919388    -1.6209317      3.9418338    
    480000   0.45          -2.2022576      0.15131581    -1.6011149      4.0487834    
    481000   0.46109675    -2.2201961      0.14924833    -1.6100284      3.974888     
    482000   0.43833758    -2.2088252      0.14688743    -1.6237688      4.0214745    
    483000   0.45605167    -2.2099849      0.15024245    -1.6038662      4.0158024    
    484000   0.43964177    -2.2082007      0.15216803    -1.61656        4.0499693    
    485000   0.4430967     -2.2304494      0.16063531    -1.6268878      3.8493506    
    486000   0.46106081    -2.2102002      0.14541828    -1.6038984      3.9861471    
    487000   0.43954569    -2.2165808      0.15065021    -1.6265539      3.9404141    
    488000   0.44565366    -2.2274322      0.14714072    -1.6348092      3.8545376    
    489000   0.45446929    -2.221893       0.1423073     -1.6252912      3.8861176    
    490000   0.45361143    -2.2272622      0.155988      -1.6178372      3.8265473    
    491000   0.46132957    -2.2192039      0.13869471    -1.619357       3.8920501    
    492000   0.45159226    -2.2228878      0.14209759    -1.6293716      3.9390661    
    493000   0.45420781    -2.2165095      0.15599461    -1.6064818      3.9490277    
    494000   0.43770184    -2.2188487      0.14407967    -1.6372355      4.0113       
    495000   0.43847856    -2.2314053      0.160039      -1.6330564      3.840476     
    496000   0.44691759    -2.2108281      0.14772172    -1.6163607      4.0574421    
    497000   0.4441518     -2.210741       0.15265201    -1.614108       4.0708545    
    498000   0.45892774    -2.2220464      0.15068623    -1.6126089      3.9064654    
    499000   0.44187083    -2.2227756      0.1497155     -1.6313593      3.9006657    
    500000   0.44707058    -2.2284207      0.15476253    -1.6267595      3.8578771    
Loop time of 443.337 on 1 procs for 500000 steps with 2600 atoms

Performance: 487214.415 tau/day, 1127.811 timesteps/s, 2.932 Matom-step/s
95.0% CPU use with 1 MPI tasks x no OpenMP threads

MPI task timing breakdown:
Section |  min time  |  avg time  |  max time  |%varavg| %total
---------------------------------------------------------------
Pair    | 282.99     | 282.99     | 282.99     |   0.0 | 63.83
Bond    | 11.937     | 11.937     | 11.937     |   0.0 |  2.69
Neigh   | 85.648     | 85.648     | 85.648     |   0.0 | 19.32
Comm    | 6.3848     | 6.3848     | 6.3848     |   0.0 |  1.44
Output  | 4.3386     | 4.3386     | 4.3386     |   0.0 |  0.98
Modify  | 44.849     | 44.849     | 44.849     |   0.0 | 10.12
Other   |            | 7.194      |            |       |  1.62

Nlocal:           2600 ave        2600 max        2600 min
Histogram: 1 0 0 0 0 0 0 0 0 0
Nghost:            654 ave         654 max         654 min
Histogram: 1 0 0 0 0 0 0 0 0 0
Neighs:          24402 ave       24402 max       24402 min
Histogram: 1 0 0 0 0 0 0 0 0 0

Total # of neighbors = 24402
Ave neighs/atom = 9.3853846
Ave special neighs/atom = 0.76923077
Neighbor list builds = 41931
Dangerous builds = 0
Total wall time: 0:07:24
