# 2d micelle simulation

dimension	2

neighbor	0.3 bin
neigh_modify	delay 5

atom_style	bond

# Soft potential push-off

read_data	data.micelle
Reading data file ...
  orthogonal box = (0 0 -0.1) to (35.856857 35.856857 0.1)
  2 by 2 by 1 MPI processor grid
  reading atoms ...
  1200 atoms
  scanning bonds ...
  1 = max bonds/atom
  orthogonal box = (0 0 -0.1) to (35.856857 35.856857 0.1)
  2 by 2 by 1 MPI processor grid
  reading bonds ...
  300 bonds
Finding 1-2 1-3 1-4 neighbors ...
  special bond factors lj:    0        0        0       
  special bond factors coul:  0        0        0       
     2 = max # of 1-2 neighbors
     1 = max # of 1-3 neighbors
     1 = max # of 1-4 neighbors
     2 = max # of special neighbors
  special bonds CPU = 0.001 seconds
  read_data CPU = 0.078 seconds
special_bonds	fene
Finding 1-2 1-3 1-4 neighbors ...
  special bond factors lj:    0        1        1       
  special bond factors coul:  0        1        1       
     2 = max # of 1-2 neighbors
     2 = max # of special neighbors
  special bonds CPU = 0.000 seconds

pair_style	soft 1.12246
pair_coeff	* * 0.0 1.12246

bond_style 	harmonic
bond_coeff	1 50.0 0.75

velocity	all create 0.45 2349852

variable	prefactor equal ramp(1.0,20.0)

fix		1 all nve
fix		2 all temp/rescale 100 0.45 0.45 0.02 1.0
fix		3 all adapt 1 pair soft a * * v_prefactor
fix		4 all enforce2d

thermo		50
run		1000
Generated 0 of 6 mixed pair_coeff terms from geometric mixing rule
WARNING: Communication cutoff 1.42246 is shorter than a bond length based estimate of 1.425. This may lead to errors. (src/comm.cpp:730)
Neighbor list info ...
  update: every = 1 steps, delay = 5 steps, check = yes
  max neighbors/atom: 2000, page size: 100000
  master list distance cutoff = 1.42246
  ghost atom cutoff = 1.42246
  binsize = 0.71123, bins = 51 51 1
  1 neighbor lists, perpetual/occasional/extra = 1 0 0
  (1) pair soft, perpetual
      attributes: half, newton on
      pair build: half/bin/newton
      stencil: half/bin/2d
      bin: standard
WARNING: Communication cutoff 1.42246 is shorter than a bond length based estimate of 1.425. This may lead to errors. (src/comm.cpp:730)
WARNING: Inconsistent image flags (src/domain.cpp:1051)
Per MPI rank memory allocation (min/avg/max) = 5.008 | 5.008 | 5.008 Mbytes
   Step          Temp          E_pair         E_mol          TotEng         Press     
         0   0.45           0.40003756     2.2198462e-06  0.84966478     0.78952364   
        50   0.4741123      0.67721552     0.057403845    1.2083366      1.3375936    
       100   0.45           0.73046952     0.054836207    1.2349307      2.319657     
       150   0.67522329     0.7240103      0.043494925    1.4421658      2.8744751    
       200   0.45           0.78483322     0.076931234    1.3113895      3.0412318    
       250   0.664807       0.69790888     0.081070824    1.4432327      3.6917229    
       300   0.45           0.76823835     0.06672254     1.2845859      3.7861159    
       350   0.67624356     0.62569699     0.072718469    1.3740955      4.2862341    
       400   0.45           0.68525064     0.090766872    1.2256425      4.4723685    
       450   0.56698825     0.64409481     0.080542326    1.2911529      4.7408484    
       500   0.45           0.64901819     0.078321613    1.1769648      4.7914417    
       550   0.56453581     0.58308526     0.08058002     1.2277306      4.9839445    
       600   0.45           0.58216618     0.08893997     1.1207311      5.1304077    
       650   0.5221404      0.54111549     0.097862298    1.1606831      5.2427524    
       700   0.45           0.50904747     0.088313886    1.0469864      5.2653505    
       750   0.51679197     0.47245204     0.089999404    1.0788128      5.3693229    
       800   0.45           0.5051533      0.082977175    1.0377555      5.505395     
       850   0.50672522     0.46836198     0.089990087    1.064655       5.5288446    
       900   0.45           0.48777347     0.099621552    1.03702        5.7604306    
       950   0.50050182     0.46185301     0.098803548    1.0607413      5.86592      
      1000   0.45           0.46874456     0.099504608    1.0178742      5.9977953    
Loop time of 0.149887 on 8 procs for 1000 steps with 1200 atoms

Performance: 2882168.217 tau/day, 6671.686 timesteps/s, 8.006 Matom-step/s
96.6% CPU use with 4 MPI tasks x 2 OpenMP threads

MPI task timing breakdown:
Section |  min time  |  avg time  |  max time  |%varavg| %total
---------------------------------------------------------------
Pair    | 0.051779   | 0.052883   | 0.054525   |   0.5 | 35.28
Bond    | 0.0026027  | 0.0026983  | 0.0027537  |   0.1 |  1.80
Neigh   | 0.020336   | 0.020396   | 0.020481   |   0.0 | 13.61
Comm    | 0.043553   | 0.045432   | 0.046403   |   0.5 | 30.31
Output  | 0.00092011 | 0.0014741  | 0.003094   |   2.4 |  0.98
Modify  | 0.015974   | 0.016463   | 0.017139   |   0.3 | 10.98
Other   |            | 0.01054    |            |       |  7.03

Nlocal:            300 ave         306 max         294 min
Histogram: 1 0 0 0 1 1 0 0 0 1
Nghost:         100.25 ave         107 max          95 min
Histogram: 1 1 0 0 0 1 0 0 0 1
Neighs:            786 ave         816 max         754 min
Histogram: 1 0 0 0 0 2 0 0 0 1

Total # of neighbors = 3144
Ave neighs/atom = 2.62
Ave special neighs/atom = 0.5
Neighbor list builds = 92
Dangerous builds = 0

unfix		3
unfix 1
# Main run
fix 5 all nvt temp 0.45 0.45 0.01
pair_style	lj/cut 2.5

# solvent/head - full-size and long-range

pair_coeff	1 1 1.0 1.0 2.5
pair_coeff	2 2 1.0 1.0 2.5
pair_coeff	1 2 1.0 1.0 2.5

# tail/tail - size-averaged and long-range

pair_coeff	3 3 1.0 0.75 2.5
pair_coeff	4 4 1.0 0.50 2.5
pair_coeff	3 4 1.0 0.67 2.5

# solvent/tail - full-size and repulsive

pair_coeff	1 3 1.0 1.0 1.12246
pair_coeff	1 4 1.0 1.0 1.12246

# head/tail - size-averaged and repulsive

pair_coeff	2 3 1.0 0.88 1.12246
pair_coeff	2 4 1.0 0.75 1.12246

thermo		1000

dump		1 all atom 500 dump.micelle

#dump		2 all image 2000 image.*.jpg type type zoom 1.6
#dump_modify	2 pad 5 adiam 1 0.5 adiam 2 1.5 adiam 3 1.0 adiam 4 0.75

#dump		3 all movie 2000 movie.mpg type type zoom 1.6
#dump_modify	3 pad 5 adiam 1 0.5 adiam 2 1.5 adiam 3 1.0 adiam 4 0.75

reset_timestep	0
run		500000
Generated 0 of 6 mixed pair_coeff terms from geometric mixing rule
Neighbor list info ...
  update: every = 1 steps, delay = 5 steps, check = yes
  max neighbors/atom: 2000, page size: 100000
  master list distance cutoff = 2.8
  ghost atom cutoff = 2.8
  binsize = 1.4, bins = 26 26 1
  1 neighbor lists, perpetual/occasional/extra = 1 0 0
  (1) pair lj/cut, perpetual
      attributes: half, newton on
      pair build: half/bin/newton
      stencil: half/bin/2d
      bin: standard
WARNING: Inconsistent image flags (src/domain.cpp:1051)
Per MPI rank memory allocation (min/avg/max) = 5.006 | 5.006 | 5.006 Mbytes
   Step          Temp          E_pair         E_mol          TotEng         Press     
         0   0.45          -1.7347922      0.099504608   -1.1856626      3.8676837    
      1000   0.45934922    -1.9461315      0.061006687   -1.4261584      2.0847587    
      2000   0.45092785    -1.9999437      0.062881757   -1.4865099      1.5164757    
      3000   0.46124596    -2.0135172      0.056281959   -1.4963736      1.5124694    
      4000   0.44097998    -2.0273902      0.055095512   -1.5316822      1.5507504    
      5000   0.43837433    -2.0362679      0.076156543   -1.5221024      1.2355102    
      6000   0.45          -2.0184018      0.066618401   -1.5021584      1.4088331    
      7000   0.44138817    -2.0318858      0.070796708   -1.5200687      1.2879288    
      8000   0.46093266    -2.0734597      0.06344311    -1.549468       0.89650363   
      9000   0.44764639    -2.0622452      0.056731154   -1.5582407      1.0513493    
     10000   0.45460724    -2.0618384      0.066498421   -1.5411116      1.0909069    
     11000   0.45535563    -2.0481903      0.058504681   -1.5347095      1.2952543    
     12000   0.45282884    -2.0525675      0.05535458    -1.5447614      1.3067673    
     13000   0.45601153    -2.098236       0.063212717   -1.5793917      0.8384159    
     14000   0.46389836    -2.0724191      0.061768545   -1.5471387      0.94647446   
     15000   0.4551517     -2.0609973      0.056878238   -1.5493466      0.95810379   
     16000   0.45          -2.0776595      0.064433389   -1.5636011      0.88152829   
     17000   0.46440036    -2.0681501      0.067199953   -1.5369368      1.078427     
     18000   0.43953157    -2.0934674      0.058421567   -1.5958805      0.85205864   
     19000   0.45          -2.087846       0.052969634   -1.5852514      0.8999791    
     20000   0.44227746    -2.0779727      0.05938955    -1.5766742      0.88885291   
     21000   0.44650158    -2.081838       0.055164555   -1.5805439      0.92089887   
     22000   0.45298486    -2.1102943      0.067951661   -1.5897353      0.67039869   
     23000   0.45933087    -2.0918059      0.058891538   -1.5739663      0.86847923   
     24000   0.4553755     -2.0912778      0.055681975   -1.5805998      0.9706394    
     25000   0.43779724    -2.0956616      0.054314824   -1.6039143      0.7762653    
     26000   0.4341072     -2.0819894      0.063090411   -1.5851536      0.97528228   
     27000   0.45645256    -2.0941689      0.054354207   -1.5837425      0.91223772   
     28000   0.45694105    -2.1000095      0.071530261   -1.571919       0.82041509   
     29000   0.44231813    -2.0960358      0.05641555    -1.5976707      0.82394899   
     30000   0.45762881    -2.0885035      0.068379029   -1.562877       0.90725265   
     31000   0.45207125    -2.1026056      0.058979111   -1.5919319      0.90115576   
     32000   0.46942895    -2.0979867      0.059339272   -1.5696096      0.74456419   
     33000   0.45          -2.1150722      0.05894149    -1.6065058      0.73759541   
     34000   0.45760707    -2.1255105      0.053338567   -1.6149462      0.650614     
     35000   0.44763537    -2.0960217      0.076334281   -1.5724251      0.69151297   
     36000   0.45          -2.10428        0.062884218   -1.5917707      0.90504787   
     37000   0.44186395    -2.1261433      0.053311932   -1.6313357      0.63877124   
     38000   0.46474858    -2.104687       0.054859167   -1.5854666      0.71660971   
     39000   0.4478478     -2.1206944      0.071192651   -1.6020271      0.59476565   
     40000   0.4439329     -2.1176802      0.057366807   -1.6167504      0.8757688    
     41000   0.45          -2.1487139      0.054099355   -1.6449895      0.66238074   
     42000   0.46293994    -2.1334849      0.059251526   -1.6116792      0.45125643   
     43000   0.44104503    -2.1196504      0.067768438   -1.6112045      0.80108697   
     44000   0.46099324    -2.1008749      0.062285547   -1.5779803      0.79570873   
     45000   0.4657933     -2.1213349      0.056515197   -1.5994146      0.71481068   
     46000   0.45901735    -2.1174097      0.05860258    -1.6001722      0.73735334   
     47000   0.45052801    -2.1112485      0.065610393   -1.5954855      0.68844953   
     48000   0.46404771    -2.1260596      0.068780846   -1.5936177      0.63217029   
     49000   0.43964324    -2.0887112      0.053865538   -1.5955688      0.90065059   
     50000   0.44246528    -2.1115637      0.062540306   -1.6069269      0.79120175   
     51000   0.45614535    -2.1237012      0.056729729   -1.6112062      0.5779186    
     52000   0.45          -2.0961114      0.072021312   -1.574465       0.83196829   
     53000   0.45177247    -2.1107575      0.056674877   -1.6026866      0.66608411   
     54000   0.45111568    -2.1020791      0.051967377   -1.599372       0.70342802   
     55000   0.45501131    -2.0910459      0.054554555   -1.5818592      0.66923599   
     56000   0.46871943    -2.1298572      0.061554995   -1.5999734      0.73039643   
     57000   0.43705501    -2.1374642      0.057998001   -1.6427754      0.64975981   
     58000   0.44350343    -2.1342678      0.067232095   -1.6239018      0.57462285   
     59000   0.45358153    -2.1008108      0.056323952   -1.5912833      0.66068545   
     60000   0.45859482    -2.1172129      0.057589638   -1.6014106      0.71431118   
     61000   0.46718141    -2.1239967      0.060292543   -1.596912       0.59793928   
     62000   0.43284062    -2.1282962      0.06355393    -1.6322623      0.63885202   
     63000   0.45937201    -2.116098       0.058034227   -1.5990746      0.58837734   
     64000   0.44937968    -2.1310108      0.057321191   -1.6246845      0.52302581   
     65000   0.4402963     -2.1116039      0.065763154   -1.6059114      0.65412553   
     66000   0.45300116    -2.10262        0.050525905   -1.5994705      0.69011366   
     67000   0.4412845     -2.113437       0.058599858   -1.6139204      0.66553591   
     68000   0.44332131    -2.1306213      0.06232568    -1.6253438      0.45850375   
     69000   0.45528816    -2.1208006      0.056626555   -1.6092653      0.59568365   
     70000   0.45679635    -2.1382219      0.062637755   -1.6191685      0.47759997   
     71000   0.4490106     -2.1329032      0.059444371   -1.6248224      0.70070106   
     72000   0.43224087    -2.1233244      0.063925703   -1.627518       0.4878319    
     73000   0.43827586    -2.1203744      0.061098188   -1.6213656      0.65966839   
     74000   0.45          -2.1009256      0.06148657    -1.589814       0.77356906   
     75000   0.45          -2.1203905      0.062918819   -1.6078466      0.66346474   
     76000   0.44300664    -2.1098302      0.055523391   -1.6116694      0.61368846   
     77000   0.44116594    -2.1148922      0.052195007   -1.6218989      0.65057642   
     78000   0.43325985    -2.1132219      0.067186784   -1.6131364      0.57739153   
     79000   0.45483113    -2.1214995      0.057749747   -1.6092976      0.60488807   
     80000   0.45237274    -2.1284107      0.068059632   -1.6083553      0.60499271   
     81000   0.45          -2.1103354      0.056315936   -1.6043945      0.44941176   
     82000   0.45          -2.1210621      0.05239367    -1.6190434      0.52677771   
     83000   0.44745005    -2.1134534      0.058789887   -1.6075864      0.56306774   
     84000   0.45719138    -2.1320357      0.0546251     -1.6206002      0.61715394   
     85000   0.45          -2.1072397      0.056840463   -1.6007742      0.74899599   
     86000   0.44448768    -2.1611913      0.055986612   -1.6610874      0.46324362   
     87000   0.45740161    -2.1156249      0.064962547   -1.5936419      0.75259428   
     88000   0.4563484     -2.1174752      0.055803678   -1.6057034      0.67633242   
     89000   0.4388211     -2.1223776      0.071896706   -1.6120255      0.71369945   
     90000   0.46070629    -2.1326117      0.065778529   -1.6065108      0.44941141   
     91000   0.43120233    -2.1430075      0.054512834   -1.6576516      0.45174256   
     92000   0.45010338    -2.1409388      0.054721476   -1.636489       0.60599774   
     93000   0.43816653    -2.1319032      0.053717755   -1.640384       0.65443853   
     94000   0.44527419    -2.1209866      0.060975174   -1.6151083      0.56141926   
     95000   0.45806794    -2.1291025      0.064180744   -1.6072355      0.65334083   
     96000   0.44485101    -2.1448491      0.061002954   -1.6393658      0.52324895   
     97000   0.44870125    -2.12252        0.072894062   -1.6012986      0.52048618   
     98000   0.44060056    -2.1291501      0.062856673   -1.6260601      0.51708369   
     99000   0.44709236    -2.132661       0.051244057   -1.6346972      0.61465289   
    100000   0.45450517    -2.1519059      0.061765682   -1.6360138      0.46529356   
    101000   0.44227406    -2.1294715      0.05152359    -1.6360425      0.66479811   
    102000   0.45408238    -2.1472359      0.062330221   -1.6312017      0.53889948   
    103000   0.4565847     -2.1573718      0.057232936   -1.6439347      0.47331874   
    104000   0.45598929    -2.1190107      0.057953598   -1.6054478      0.77263113   
    105000   0.45          -2.1060608      0.059904612   -1.5965312      0.80804862   
    106000   0.45          -2.1162512      0.059189938   -1.6074363      0.68793375   
    107000   0.4544606     -2.1316466      0.065665357   -1.6118994      0.47609886   
    108000   0.44478193    -2.1237774      0.057272755   -1.6220934      0.46948608   
    109000   0.44599045    -2.1221595      0.067248942   -1.6092917      0.80380807   
    110000   0.46058288    -2.1186032      0.058290901   -1.6001132      0.53422511   
    111000   0.45219806    -2.1329406      0.054001839   -1.6271176      0.46983689   
    112000   0.45          -2.1319215      0.065236788   -1.6170597      0.51561253   
    113000   0.45675113    -2.1391555      0.059818268   -1.6229667      0.49056366   
    114000   0.45          -2.1226874      0.05916111    -1.6139013      0.61338762   
    115000   0.46552736    -2.1350947      0.066779008   -1.6031763      0.55382476   
    116000   0.46438186    -2.1336197      0.059695803   -1.609929       0.44161772   
    117000   0.46680127    -2.109239       0.056031647   -1.5867951      0.76368658   
    118000   0.45          -2.1287382      0.055753608   -1.6233596      0.61377754   
    119000   0.45303091    -2.1303581      0.055000516   -1.6227042      0.54906386   
    120000   0.44564381    -2.1121919      0.05146945    -1.61545        0.62193671   
    121000   0.43918118    -2.1448553      0.056189575   -1.6498506      0.55582011   
    122000   0.44977242    -2.1366296      0.062905609   -1.6243264      0.50769546   
    123000   0.44420659    -2.1212203      0.062312276   -1.6150716      0.62764535   
    124000   0.45          -2.1390845      0.058407798   -1.6310517      0.45541576   
    125000   0.4496249     -2.1447347      0.054584009   -1.6409005      0.62584484   
    126000   0.45116593    -2.1409912      0.058208197   -1.631993       0.54829554   
    127000   0.45970175    -2.1267887      0.057010343   -1.6104597      0.5517473    
    128000   0.44086106    -2.1361451      0.057973261   -1.6376781      0.57231585   
    129000   0.46991452    -2.1177919      0.063048374   -1.5852206      0.73945101   
    130000   0.4608653     -2.1293495      0.063811943   -1.6050563      0.61913201   
    131000   0.43440724    -2.1274406      0.055824292   -1.637571       0.56455033   
    132000   0.44603651    -2.1601686      0.053707117   -1.6607966      0.45865844   
    133000   0.44415836    -2.1197576      0.062312048   -1.6136573      0.5275848    
    134000   0.45          -2.1332229      0.061604348   -1.6219935      0.45523204   
    135000   0.43258486    -2.1250893      0.050596047   -1.6422689      0.50184294   
    136000   0.45724082    -2.1326476      0.057860702   -1.6179271      0.61669294   
    137000   0.45          -2.1150544      0.059076536   -1.6063528      0.57834242   
    138000   0.45          -2.1231041      0.063103016   -1.6103761      0.59307365   
    139000   0.44967806    -2.1377366      0.05827412    -1.6301591      0.52805882   
    140000   0.43042162    -2.1303871      0.056043183   -1.644281       0.6180041    
    141000   0.45          -2.1248945      0.054538225   -1.6207313      0.54589941   
    142000   0.44867663    -2.1336542      0.059320664   -1.6260308      0.51050656   
    143000   0.45139886    -2.117625       0.061516343   -1.6050859      0.73033281   
    144000   0.46969538    -2.1247974      0.057507058   -1.5979863      0.66286112   
    145000   0.43320098    -2.1431959      0.060390705   -1.6499652      0.37830516   
    146000   0.45          -2.1362658      0.054321318   -1.6323194      0.52135493   
    147000   0.45          -2.1334124      0.061944719   -1.6218427      0.61432733   
    148000   0.44592131    -2.1324003      0.060168504   -1.6266821      0.64521901   
    149000   0.4411804     -2.1133131      0.050678859   -1.6218215      0.66459205   
    150000   0.44372788    -2.1429913      0.065345296   -1.6342879      0.46827807   
    151000   0.43378222    -2.1186611      0.054289986   -1.6309504      0.72756037   
    152000   0.4380274     -2.1261082      0.054608913   -1.6338369      0.68630147   
    153000   0.46136482    -2.1272876      0.069701616   -1.5966057      0.60157821   
    154000   0.44583953    -2.1442885      0.050418602   -1.6484019      0.46919356   
    155000   0.44491978    -2.128859       0.061159294   -1.6231507      0.55490311   
    156000   0.45          -2.1300729      0.060590679   -1.6198572      0.44036617   
    157000   0.45          -2.1378406      0.061143778   -1.6270718      0.45855628   
    158000   0.45304513    -2.1379247      0.069038343   -1.6162187      0.49686913   
    159000   0.46310781    -2.1295147      0.053398818   -1.613394       0.34857666   
    160000   0.45          -2.1391285      0.07342922    -1.6160743      0.42828346   
    161000   0.45767968    -2.1247876      0.057548129   -1.6099412      0.67053586   
    162000   0.44498693    -2.1386032      0.070562293   -1.6234248      0.42135298   
    163000   0.45457872    -2.1327161      0.057683594   -1.6208326      0.44438376   
    164000   0.43838201    -2.1310881      0.059667934   -1.6334035      0.58366634   
    165000   0.44281264    -2.1322225      0.065799806   -1.623979       0.57740374   
    166000   0.45029614    -2.1534841      0.059217184   -1.644346       0.40835321   
    167000   0.46216528    -2.1286181      0.062086648   -1.6047513      0.63933286   
    168000   0.46045748    -2.1150992      0.066867469   -1.5881579      0.66844135   
    169000   0.45757872    -2.1177767      0.060285056   -1.6002942      0.80629364   
    170000   0.4356122     -2.1274591      0.059262894   -1.632947       0.66541822   
    171000   0.46357224    -2.1164174      0.062859876   -1.5903716      0.70457741   
    172000   0.45440978    -2.0979966      0.062173091   -1.5817924      0.77151135   
    173000   0.46018902    -2.1317483      0.060449093   -1.6114937      0.57352761   
    174000   0.46204136    -2.1270633      0.061199603   -1.6042074      0.75805807   
    175000   0.44398114    -2.1402756      0.064655405   -1.6320091      0.53936589   
    176000   0.45          -2.1217972      0.062724307   -1.6094479      0.50510438   
    177000   0.4464076     -2.1267895      0.058930686   -1.6218232      0.53875671   
    178000   0.45          -2.1282472      0.068099375   -1.6105228      0.59273104   
    179000   0.4679762     -2.1222481      0.058374349   -1.5962875      0.65711872   
    180000   0.44521707    -2.1223264      0.059565498   -1.6179148      0.59714433   
    181000   0.438146      -2.155885       0.061067756   -1.6570364      0.53681301   
    182000   0.45          -2.1313477      0.062332736   -1.61939        0.52385226   
    183000   0.437102      -2.1242892      0.0574152     -1.6301362      0.51796889   
    184000   0.44210869    -2.130144       0.06381915    -1.6245846      0.57656493   
    185000   0.4564952     -2.123783       0.060881788   -1.6067864      0.53608316   
    186000   0.45010602    -2.1250748      0.060164889   -1.615179       0.59231986   
    187000   0.45757927    -2.1401987      0.059228196   -1.6237726      0.48210414   
    188000   0.45          -2.1240394      0.061742535   -1.6126719      0.61713637   
    189000   0.45348638    -2.1272481      0.054891658   -1.619248       0.72806859   
    190000   0.45587305    -2.0913099      0.053386202   -1.5824306      0.92710253   
    191000   0.4405923     -2.1111071      0.059563275   -1.6113186      0.69629413   
    192000   0.43002757    -2.1470994      0.058521625   -1.6589086      0.42273293   
    193000   0.45135685    -2.1338619      0.059054708   -1.6238264      0.60584149   
    194000   0.46439166    -2.1378513      0.061476086   -1.6123705      0.5039882    
    195000   0.45738539    -2.1429116      0.060267829   -1.6256395      0.55189409   
    196000   0.44428402    -2.1148639      0.066386933   -1.6045632      0.67892679   
    197000   0.46577667    -2.1404146      0.063900022   -1.6111261      0.50477641   
    198000   0.44331704    -2.1196901      0.061646036   -1.6150965      0.60842944   
    199000   0.43505218    -2.1319236      0.06248015    -1.6347538      0.44484472   
    200000   0.45758511    -2.1367358      0.05682128    -1.6227107      0.61990729   
    201000   0.44785081    -2.1189154      0.056839163   -1.6145986      0.72629283   
    202000   0.45465574    -2.1318723      0.060219041   -1.6173764      0.45840984   
    203000   0.44017057    -2.1247682      0.055262797   -1.6297016      0.53808761   
    204000   0.45889873    -2.1401677      0.054621385   -1.62703        0.36354515   
    205000   0.43979131    -2.1184352      0.071077761   -1.6079326      0.57047645   
    206000   0.45          -2.1173796      0.051047547   -1.6167071      0.53801085   
    207000   0.45391558    -2.1393731      0.052830387   -1.6330054      0.41250717   
    208000   0.45          -2.1320956      0.060196452   -1.6222741      0.6255939    
    209000   0.45          -2.1340096      0.057375674   -1.6270089      0.49592256   
    210000   0.45752264    -2.1142297      0.060845545   -1.5962428      0.62328817   
    211000   0.4678799     -2.1362359      0.054933291   -1.6138126      0.43489603   
    212000   0.43691815    -2.146658       0.066570182   -1.6435337      0.42587533   
    213000   0.45836139    -2.106974       0.061560186   -1.5874344      0.66440261   
    214000   0.45577797    -2.1165692      0.060040117   -1.6011309      0.84547621   
    215000   0.46373704    -2.1275502      0.070379981   -1.5938197      0.65889975   
    216000   0.45175765    -2.1547945      0.06096875    -1.6424446      0.42970605   
    217000   0.44528812    -2.1128003      0.057711277   -1.610172       0.68857539   
    218000   0.45149808    -2.1346561      0.058107771   -1.6254265      0.61694664   
    219000   0.44121549    -2.1308033      0.059570129   -1.6303853      0.55745658   
    220000   0.44534577    -2.1130704      0.06260162    -1.6054941      0.59665643   
    221000   0.44311944    -2.1199914      0.064387713   -1.6128535      0.53641357   
    222000   0.45          -2.1397363      0.069536017   -1.6205753      0.5971061    
    223000   0.44248662    -2.1273087      0.057857248   -1.6273336      0.59605798   
    224000   0.45          -2.1297947      0.062462385   -1.6177073      0.70523134   
    225000   0.4358564     -2.1297138      0.056130154   -1.6380905      0.63251041   
    226000   0.45866837    -2.1339238      0.057268565   -1.6183691      0.49984641   
    227000   0.45795723    -2.112506       0.065778193   -1.5891522      0.72393979   
    228000   0.45896916    -2.1210136      0.062282451   -1.6001445      0.68822333   
    229000   0.45012862    -2.1230723      0.059301346   -1.6140174      0.54909307   
    230000   0.43354422    -2.1143778      0.052263316   -1.6289315      0.57973521   
    231000   0.45          -2.1209286      0.063668492   -1.6076351      0.61202354   
    232000   0.45          -2.1074278      0.065239226   -1.5925636      0.68148077   
    233000   0.46088871    -2.109994       0.062534581   -1.5869548      0.68246373   
    234000   0.45143475    -2.1168704      0.063736365   -1.6020755      0.63690372   
    235000   0.43974207    -2.1141588      0.058313276   -1.6164699      0.63915273   
    236000   0.44777589    -2.1278019      0.061505864   -1.6188932      0.5954707    
    237000   0.4519438     -2.1358593      0.053910445   -1.6303817      0.60905515   
    238000   0.43210518    -2.1387918      0.058811041   -1.6482357      0.54064242   
    239000   0.45520938    -2.1319042      0.056893617   -1.6201805      0.63736267   
    240000   0.4418324     -2.1369249      0.051531285   -1.6439294      0.49726048   
    241000   0.45          -2.1526696      0.062299382   -1.6407452      0.40602882   
    242000   0.46837064    -2.1354652      0.063093886   -1.604391       0.50071551   
    243000   0.46089373    -2.1135016      0.05573605    -1.5972559      0.63172816   
    244000   0.4382488     -2.1275101      0.064494286   -1.6251322      0.46147078   
    245000   0.43895891    -2.101621       0.064091585   -1.5989363      0.72979258   
    246000   0.4456159     -2.1380422      0.063529017   -1.6292686      0.55247766   
    247000   0.45686348    -2.1166969      0.054027898   -1.6061862      0.71371131   
    248000   0.44942934    -2.1260897      0.060373516   -1.6166614      0.65438755   
    249000   0.44062802    -2.116903       0.059969889   -1.6166723      0.6146119    
    250000   0.43424009    -2.1437195      0.053124218   -1.6567171      0.4717741    
    251000   0.45915617    -2.1369611      0.058852742   -1.6193348      0.51016067   
    252000   0.43657674    -2.1110189      0.060013933   -1.6147921      0.66469541   
    253000   0.46321384    -2.100318       0.06385131    -1.5736389      0.77151913   
    254000   0.45498826    -2.1315413      0.066938338   -1.6099938      0.65420667   
    255000   0.45392914    -2.1316986      0.057408156   -1.6207396      0.5587015    
    256000   0.45924523    -2.1417307      0.04622993    -1.6366383      0.48129101   
    257000   0.43705658    -2.1386833      0.061846388   -1.6401445      0.31651566   
    258000   0.46177608    -2.1413054      0.054713455   -1.6252006      0.34449955   
    259000   0.45559694    -2.1342004      0.062237713   -1.6167454      0.47786748   
    260000   0.45084739    -2.1365791      0.060892101   -1.6252153      0.3955405    
    261000   0.45          -2.1089531      0.061037675   -1.5982904      0.54658524   
    262000   0.45386653    -2.1472293      0.051673036   -1.6420679      0.47401878   
    263000   0.44466701    -2.1451016      0.061018024   -1.6397871      0.3967264    
    264000   0.4403862     -2.1271966      0.060777822   -1.6263995      0.66690576   
    265000   0.44700368    -2.1245853      0.060583975   -1.6173701      0.40506965   
    266000   0.45757155    -2.1407273      0.0609442     -1.6225928      0.46052079   
    267000   0.45679045    -2.1295777      0.063686094   -1.6094818      0.47946949   
    268000   0.46771954    -2.153856       0.053723128   -1.6328031      0.53657532   
    269000   0.45254961    -2.1211241      0.063880492   -1.6050711      0.51940978   
    270000   0.45905983    -2.1334938      0.06034349    -1.614473       0.57271572   
    271000   0.46984226    -2.1338732      0.060040577   -1.6043819      0.56472804   
    272000   0.45          -2.1399984      0.04888992    -1.6414834      0.45267857   
    273000   0.45289517    -2.1483273      0.050978456   -1.6448311      0.42937944   
    274000   0.43944329    -2.1463819      0.061625109   -1.6456797      0.45604406   
    275000   0.45328284    -2.1111606      0.05755082    -1.6007046      0.81137351   
    276000   0.44136764    -2.1416916      0.056729985   -1.6439618      0.35241405   
    277000   0.44256694    -2.133891       0.053694161   -1.6379988      0.59734525   
    278000   0.46949374    -2.1228979      0.059238897   -1.5945565      0.77919089   
    279000   0.45          -2.1469981      0.063872857   -1.6335002      0.45269251   
    280000   0.45          -2.1336124      0.059117986   -1.6248694      0.43175685   
    281000   0.44423241    -2.1311706      0.066887718   -1.6204206      0.49173257   
    282000   0.44740811    -2.1312445      0.067366502   -1.6168427      0.495083     
    283000   0.46573318    -2.1366262      0.053648474   -1.6176327      0.61944444   
    284000   0.43569391    -2.1317633      0.056026715   -1.6404058      0.45725702   
    285000   0.45          -2.1232196      0.055831707   -1.6177629      0.66301554   
    286000   0.45          -2.1264446      0.052256778   -1.6245628      0.45125461   
    287000   0.4531386     -2.12035        0.056848332   -1.6107407      0.65990766   
    288000   0.45          -2.1434514      0.057281165   -1.6365452      0.56865065   
    289000   0.45756865    -2.1423918      0.054822904   -1.6303815      0.52045978   
    290000   0.45675337    -2.1272701      0.059583793   -1.6113136      0.71829252   
    291000   0.45821031    -2.1452349      0.067219904   -1.6201865      0.42756197   
    292000   0.43602356    -2.1326764      0.055527526   -1.6414887      0.58190846   
    293000   0.44327358    -2.1226762      0.070806143   -1.6089659      0.64132833   
    294000   0.44624271    -2.1258216      0.048387725   -1.631563       0.47940988   
    295000   0.4329679     -2.1378253      0.046054283   -1.6591639      0.49679099   
    296000   0.43675376    -2.132867       0.056523176   -1.639954       0.5252676    
    297000   0.43993719    -2.134208       0.05249696    -1.6421405      0.54079557   
    298000   0.44812526    -2.1514097      0.058840121   -1.6448178      0.40560001   
    299000   0.45          -2.131497       0.057133315   -1.6247387      0.60990661   
    300000   0.45          -2.1465803      0.062632873   -1.6343224      0.49955503   
    301000   0.43119479    -2.1640593      0.05945636    -1.6737675      0.26806947   
    302000   0.46564425    -2.1296018      0.063648835   -1.6006967      0.4912005    
    303000   0.4421798     -2.1442806      0.055924794   -1.6465444      0.55838864   
    304000   0.43625018    -2.1517805      0.055954074   -1.6599398      0.39571379   
    305000   0.45          -2.1367349      0.052403302   -1.6347066      0.38564174   
    306000   0.46071481    -2.1353855      0.06558159    -1.609473       0.57281823   
    307000   0.46037036    -2.1384268      0.066153498   -1.6122866      0.41601142   
    308000   0.4543666     -2.1314491      0.055355331   -1.6221058      0.57287225   
    309000   0.43797476    -2.1517417      0.057889155   -1.6562428      0.44960476   
    310000   0.453937      -2.1357698      0.059525003   -1.6226861      0.55434322   
    311000   0.46802716    -2.1319106      0.058002677   -1.6062707      0.62005954   
    312000   0.43465208    -2.1226667      0.059831992   -1.6285448      0.48038918   
    313000   0.45279033    -2.1361491      0.056046799   -1.6276893      0.50763401   
    314000   0.4471798     -2.1433165      0.048595211   -1.6479141      0.5212719    
    315000   0.43611127    -2.1215971      0.057439789   -1.6284094      0.6908379    
    316000   0.46360706    -2.1418675      0.062408503   -1.6162383      0.61808857   
    317000   0.43481212    -2.1128144      0.058345716   -1.6200189      0.69990207   
    318000   0.45584768    -2.1234635      0.060972473   -1.6070232      0.59259133   
    319000   0.45333088    -2.1048197      0.05959978    -1.5922668      0.78165394   
    320000   0.44037551    -2.1237081      0.051411291   -1.6322883      0.54764647   
    321000   0.45657699    -2.1176843      0.059665152   -1.6018226      0.53404996   
    322000   0.44288456    -2.1311122      0.056912511   -1.6316842      0.44103654   
    323000   0.45          -2.1240473      0.049821255   -1.624601       0.51812311   
    324000   0.45008475    -2.1294561      0.067537114   -1.6122093      0.51096554   
    325000   0.45596115    -2.1222806      0.064907107   -1.6017923      0.56996462   
    326000   0.46320053    -2.1217117      0.057020655   -1.6018765      0.56454644   
    327000   0.45768442    -2.1492725      0.061334011   -1.6306355      0.54377688   
    328000   0.45          -2.1436847      0.054471783   -1.6395879      0.50273818   
    329000   0.44236123    -2.1204099      0.066235589   -1.6121818      0.53713406   
    330000   0.43747042    -2.1254627      0.055396183   -1.6329606      0.57629397   
    331000   0.46777364    -2.1525363      0.059200443   -1.625952       0.45734564   
    332000   0.45415496    -2.1225135      0.061142985   -1.607594       0.52092176   
    333000   0.44268699    -2.1376387      0.061119513   -1.6342011      0.37422649   
    334000   0.45205801    -2.1399488      0.062909518   -1.6253579      0.55168812   
    335000   0.44599991    -2.1410701      0.065159131   -1.6302827      0.50921086   
    336000   0.45243037    -2.1356001      0.052051951   -1.6314948      0.5544244    
    337000   0.43768769    -2.135102       0.065498073   -1.6322809      0.59521586   
    338000   0.44957229    -2.131951       0.053774587   -1.6289788      0.60726707   
    339000   0.44296634    -2.1233204      0.059113421   -1.6216098      0.46302162   
    340000   0.46734702    -2.148694       0.065532207   -1.6162043      0.36612948   
    341000   0.46539134    -2.1269812      0.0637406     -1.5982371      0.53261499   
    342000   0.46200064    -2.1207712      0.060617437   -1.5985381      0.65278951   
    343000   0.4429315     -2.1342881      0.051789581   -1.6399361      0.65635565   
    344000   0.45572151    -2.1143677      0.057545486   -1.6014805      0.69703919   
    345000   0.4510548     -2.1139608      0.059173276   -1.6041086      0.74966015   
    346000   0.45          -2.1256354      0.048914377   -1.627096       0.70510357   
    347000   0.45          -2.1409415      0.069111264   -1.6222052      0.48188421   
    348000   0.44044591    -2.1349235      0.058598961   -1.6362457      0.72492548   
    349000   0.45          -2.0964171      0.05763325    -1.5891588      0.84461717   
    350000   0.45          -2.1306276      0.061838263   -1.6191643      0.63502356   
    351000   0.44551926    -2.1225772      0.06257913    -1.6148501      0.58209914   
    352000   0.46921266    -2.1382734      0.054017924   -1.6154338      0.35328617   
    353000   0.45646873    -2.1500009      0.063323416   -1.6305892      0.50273788   
    354000   0.4503165     -2.1257078      0.06160167    -1.6141649      0.60211342   
    355000   0.45          -2.1175254      0.061039416   -1.606861       0.56942673   
    356000   0.4586944     -2.1323625      0.058753209   -1.6152972      0.62109371   
    357000   0.44396231    -2.1495809      0.052777526   -1.653211       0.39718552   
    358000   0.45          -2.1248849      0.06467416    -1.6105857      0.45975188   
    359000   0.43828255    -2.1267156      0.06641029    -1.622388       0.61678653   
    360000   0.45218467    -2.12041        0.059059232   -1.6095429      0.47389814   
    361000   0.45          -2.1397976      0.067298162   -1.6228745      0.51973609   
    362000   0.44574287    -2.1260367      0.06042498    -1.6202403      0.55530883   
    363000   0.45909751    -2.1228968      0.059577345   -1.6046045      0.48926514   
    364000   0.43090827    -2.1462935      0.060701247   -1.655043       0.37046289   
    365000   0.44192565    -2.1464067      0.059210514   -1.6456388      0.37626017   
    366000   0.44291811    -2.1463407      0.057169415   -1.6466223      0.48522197   
    367000   0.46907163    -2.1544332      0.06766092    -1.6180916      0.44894226   
    368000   0.45490814    -2.127095       0.062129096   -1.6104369      0.58259645   
    369000   0.45          -2.1412992      0.072984111   -1.6186901      0.42129469   
    370000   0.46614302    -2.1340666      0.048546344   -1.6197657      0.54876292   
    371000   0.45483256    -2.1345136      0.054211751   -1.6258483      0.6668242    
    372000   0.44717917    -2.1270445      0.060054008   -1.6201839      0.5293292    
    373000   0.45398557    -2.1310295      0.056367989   -1.6210543      0.53899474   
    374000   0.4485883     -2.1381052      0.054058917   -1.6358318      0.42453324   
    375000   0.44733015    -2.1566724      0.058308462   -1.6514065      0.41128088   
    376000   0.44356046    -2.1353978      0.065533389   -1.6266735      0.50246008   
    377000   0.44965814    -2.12342        0.059542145   -1.6145944      0.6501841    
    378000   0.451329      -2.1375836      0.063192934   -1.6234378      0.56762362   
    379000   0.45          -2.1227741      0.056152683   -1.6169964      0.61959235   
    380000   0.43258609    -2.1342965      0.058996924   -1.6430739      0.44933693   
    381000   0.44716738    -2.1173557      0.064446258   -1.6061147      0.53361191   
    382000   0.45          -2.119504       0.062880482   -1.6069985      0.62429407   
    383000   0.45436022    -2.1247571      0.050408466   -1.620367       0.51102594   
    384000   0.45          -2.1234597      0.050735858   -1.6230988      0.68008917   
    385000   0.45726502    -2.1534841      0.056457515   -1.6401427      0.55660521   
    386000   0.45099019    -2.1159708      0.06221759    -1.6031388      0.64180145   
    387000   0.4415358     -2.1398967      0.060128246   -1.6386006      0.3321743    
    388000   0.43702323    -2.1307911      0.058036029   -1.636096       0.44907274   
    389000   0.46665057    -2.1545251      0.059483106   -1.6287803      0.54542879   
    390000   0.45          -2.1328781      0.062787633   -1.6204655      0.52284225   
    391000   0.44575921    -2.1590566      0.078946179   -1.6347227      0.15533107   
    392000   0.45994183    -2.1394086      0.053988637   -1.6258614      0.55024521   
    393000   0.46891653    -2.1348611      0.057703348   -1.608632       0.48861406   
    394000   0.46219369    -2.1279544      0.059351284   -1.6067946      0.51917554   
    395000   0.45049134    -2.1373884      0.059909137   -1.6273633      0.35193145   
    396000   0.45950823    -2.1242741      0.056267524   -1.6088813      0.46439511   
    397000   0.43952006    -2.1234713      0.052130167   -1.6321873      0.60607509   
    398000   0.44667221    -2.1170238      0.059292579   -1.6114313      0.59939636   
    399000   0.4370357     -2.1281074      0.056570192   -1.6348657      0.4143685    
    400000   0.45          -2.1339097      0.062536142   -1.6217486      0.62403763   
    401000   0.45245746    -2.12771        0.057567769   -1.6180618      0.61111827   
    402000   0.45          -2.1418308      0.055129011   -1.6370768      0.49295583   
    403000   0.44283056    -2.1474958      0.068649296   -1.636385       0.40870049   
    404000   0.43764054    -2.1308455      0.058399731   -1.63517        0.51651302   
    405000   0.46697403    -2.1217481      0.071037614   -1.5841256      0.56477794   
    406000   0.43320895    -2.1502637      0.058348848   -1.6590669      0.37251219   
    407000   0.45          -2.1447383      0.059891187   -1.6352221      0.44556417   
    408000   0.44301651    -2.1381017      0.063523653   -1.6319307      0.64446586   
    409000   0.44341394    -2.146049       0.069667029   -1.6333376      0.49945394   
    410000   0.43198192    -2.1381807      0.057408194   -1.6491506      0.42258889   
    411000   0.45          -2.1408693      0.063815521   -1.6274288      0.23800408   
    412000   0.46000193    -2.1604361      0.06141802    -1.6393995      0.48833643   
    413000   0.44066371    -2.1440404      0.0557728     -1.6479711      0.49378863   
    414000   0.44448115    -2.1297274      0.054326703   -1.6312899      0.58085642   
    415000   0.45          -2.1337347      0.050417159   -1.6336926      0.58338697   
    416000   0.45890519    -2.1545889      0.066226894   -1.6298392      0.38096951   
    417000   0.45          -2.1424144      0.054617403   -1.638172       0.30799549   
    418000   0.46208503    -2.1434115      0.064734457   -1.6169771      0.65100827   
    419000   0.45          -2.1405069      0.056916853   -1.633965       0.47196404   
    420000   0.45275966    -2.1298836      0.062057755   -1.6154435      0.62972597   
    421000   0.45582407    -2.1282405      0.063642749   -1.6091535      0.4170513    
    422000   0.44853016    -2.1310981      0.057101911   -1.6258398      0.49604826   
    423000   0.46661506    -2.1268927      0.056082652   -1.6045839      0.51735853   
    424000   0.4688596     -2.1426182      0.053704429   -1.6204449      0.51504385   
    425000   0.44476007    -2.1660324      0.057357166   -1.6642858      0.50459196   
    426000   0.44779264    -2.1318246      0.060827914   -1.6235772      0.62249986   
    427000   0.44366778    -2.1293427      0.066444348   -1.6196003      0.48135209   
    428000   0.45023268    -2.1436366      0.062036361   -1.6317428      0.48123003   
    429000   0.43081882    -2.1338947      0.076787658   -1.6266472      0.6155215    
    430000   0.45244404    -2.1314092      0.049081578   -1.6302606      0.52559083   
    431000   0.46801591    -2.1457557      0.055948293   -1.6221815      0.39665024   
    432000   0.44476366    -2.1412721      0.057162965   -1.6397161      0.48760912   
    433000   0.45955455    -2.1220109      0.06046027    -1.6023791      0.55275684   
    434000   0.44568691    -2.1418268      0.056278207   -1.6402331      0.45743287   
    435000   0.45017503    -2.1454663      0.061694523   -1.6339719      0.36913968   
    436000   0.44050345    -2.1463907      0.060460636   -1.6457937      0.46018494   
    437000   0.46161754    -2.1597651      0.057382042   -1.6411502      0.41384023   
    438000   0.44434742    -2.1503886      0.057236413   -1.6491751      0.36721062   
    439000   0.4558649     -2.1198094      0.057882597   -1.6064418      0.44913752   
    440000   0.43935713    -2.1280952      0.058212056   -1.6308922      0.55676871   
    441000   0.46433845    -2.1216822      0.068636755   -1.5890939      0.57060688   
    442000   0.44688315    -2.1295808      0.062743305   -1.6203267      0.742089     
    443000   0.43899622    -2.1487925      0.054438521   -1.6557236      0.48608011   
    444000   0.44867025    -2.1450753      0.056063622   -1.6407153      0.43330721   
    445000   0.457439      -2.1089833      0.054755381   -1.5971701      0.65553855   
    446000   0.43722759    -2.1431589      0.058580997   -1.6477147      0.31838608   
    447000   0.43156595    -2.1436361      0.066841847   -1.6455879      0.38360906   
    448000   0.46854629    -2.1426808      0.057211465   -1.6173135      0.41094075   
    449000   0.44162295    -2.1528789      0.067752881   -1.6438711      0.2930115    
    450000   0.45328974    -2.1334672      0.058412028   -1.6221431      0.50962008   
    451000   0.45753945    -2.148013       0.067001074   -1.6238537      0.51971798   
    452000   0.46665407    -2.1420508      0.062371095   -1.6134145      0.39313147   
    453000   0.44171332    -2.1251074      0.064441039   -1.6193211      0.48270053   
    454000   0.44993619    -2.14593        0.061521459   -1.6348473      0.3987524    
    455000   0.44942474    -2.1563549      0.05833776    -1.6489669      0.37645506   
    456000   0.4323015     -2.1264762      0.057991141   -1.6365439      0.54593791   
    457000   0.44891795    -2.1558829      0.05482059    -1.6525185      0.45736614   
    458000   0.45551161    -2.1406942      0.062832714   -1.6227294      0.57881966   
    459000   0.45290156    -2.1250001      0.071731206   -1.6007448      0.61938636   
    460000   0.45540023    -2.1369456      0.066134361   -1.6157905      0.51258249   
    461000   0.46714443    -2.1441435      0.063964908   -1.6134235      0.41684503   
    462000   0.45477144    -2.1539845      0.056496203   -1.6430958      0.47597671   
    463000   0.45582487    -2.1506702      0.059036759   -1.6361884      0.539023     
    464000   0.44962258    -2.1363398      0.05319869    -1.6338932      0.60134474   
    465000   0.4439303     -2.1641785      0.056277476   -1.6643407      0.2673594    
    466000   0.44503994    -2.1511843      0.060993553   -1.6455217      0.37806812   
    467000   0.44567069    -2.1292882      0.053787819   -1.6302011      0.49344176   
    468000   0.44647764    -2.121833       0.054622388   -1.621105       0.55516154   
    469000   0.44659611    -2.1240368      0.06560187    -1.612211       0.61196545   
    470000   0.45          -2.1343343      0.062971346   -1.6217379      0.55169999   
    471000   0.4657896     -2.1431792      0.064104182   -1.6136735      0.31219831   
    472000   0.44072888    -2.1065504      0.066011085   -1.6001777      0.6347619    
    473000   0.44356536    -2.1472871      0.059706272   -1.6443851      0.5241963    
    474000   0.44100788    -2.1401024      0.050424067   -1.649038       0.40695746   
    475000   0.43527001    -2.1371494      0.06364113    -1.638601       0.42157173   
    476000   0.46791286    -2.1394337      0.056551244   -1.6153595      0.59913109   
    477000   0.43140285    -2.1477327      0.058444506   -1.6582448      0.55999936   
    478000   0.46130731    -2.1378452      0.055556221   -1.6213661      0.45907223   
    479000   0.45029254    -2.1593905      0.060684075   -1.6487891      0.38008643   
    480000   0.45593608    -2.1314832      0.062124764   -1.6138023      0.52722291   
    481000   0.45579183    -2.1196788      0.050387451   -1.6138793      0.66426428   
    482000   0.45072682    -2.1044199      0.062684018   -1.5913847      0.78929402   
    483000   0.45340753    -2.1343079      0.060066884   -1.6212114      0.65939002   
    484000   0.44204989    -2.168999       0.054867466   -1.67245        0.24295894   
    485000   0.45          -2.1323113      0.056808418   -1.6258779      0.5634863    
    486000   0.43476825    -2.1443887      0.056991841   -1.6529909      0.49876722   
    487000   0.43348588    -2.1285539      0.051698449   -1.6437308      0.47166749   
    488000   0.45          -2.1259323      0.062079656   -1.6142276      0.44767191   
    489000   0.46302368    -2.1398919      0.061544185   -1.6157099      0.51089279   
    490000   0.45872962    -2.116906       0.059477519   -1.5990812      0.57221773   
    491000   0.4647794     -2.15436        0.057918063   -1.6320499      0.31918566   
    492000   0.45          -2.1200467      0.058061642   -1.61236        0.49941008   
    493000   0.46263354    -2.1468692      0.057392269   -1.6272289      0.51802755   
    494000   0.45695537    -2.1372118      0.051965072   -1.6286722      0.46659584   
    495000   0.44065431    -2.1278528      0.059649283   -1.6279164      0.486604     
    496000   0.44370075    -2.1298571      0.050880476   -1.6356456      0.7250695    
    497000   0.46203487    -2.1301457      0.066716518   -1.6017793      0.5646703    
    498000   0.43647488    -2.1227426      0.062087741   -1.6245437      0.71755481   
    499000   0.43629346    -2.1324938      0.060769775   -1.6357941      0.49160358   
    500000   0.45          -2.1415355      0.061203317   -1.6307072      0.47988242   
Loop time of 99.1023 on 8 procs for 500000 steps with 1200 atoms

Performance: 2179565.509 tau/day, 5045.291 timesteps/s, 6.054 Matom-step/s
98.2% CPU use with 4 MPI tasks x 2 OpenMP threads

MPI task timing breakdown:
Section |  min time  |  avg time  |  max time  |%varavg| %total
---------------------------------------------------------------
Pair    | 35.114     | 37.076     | 39.1       |  23.2 | 37.41
Bond    | 0.88552    | 1.284      | 1.7126     |  26.3 |  1.30
Neigh   | 13.776     | 13.868     | 13.957     |   2.2 | 13.99
Comm    | 24.89      | 27.461     | 30.289     |  37.4 | 27.71
Output  | 1.9277     | 3.418      | 5.0842     |  63.3 |  3.45
Modify  | 10.719     | 10.917     | 11.068     |   4.1 | 11.02
Other   |            | 5.078      |            |       |  5.12

Nlocal:            300 ave         332 max         266 min
Histogram: 1 0 1 0 0 0 0 1 0 1
Nghost:            218 ave         246 max         203 min
Histogram: 1 1 1 0 0 0 0 0 0 1
Neighs:         2563.5 ave        2778 max        2246 min
Histogram: 1 0 0 0 1 0 0 0 0 2

Total # of neighbors = 10254
Ave neighs/atom = 8.545
Ave special neighs/atom = 0.5
Neighbor list builds = 40669
Dangerous builds = 0
Total wall time: 0:03:09
